 NOTE: Siesta V5 introduces some new defaults for basis-set generation
 NOTE: which might lead to slightly different numerical results.
 NOTE: Please see the manual for full details and compatibility measures.

reinit: Reading from file optimization.fdf

reinit: -----------------------------------------------------------------------
reinit: System Name:
reinit: -----------------------------------------------------------------------
reinit: System Label: optimization_simulacio1
reinit: -----------------------------------------------------------------------

initatom: Reading input for the pseudopotentials and atomic orbitals ----------
Species number:   1 Atomic number:   77 Label: Ir
Species number:   2 Atomic number:    8 Label: O
Species number:   3 Atomic number:    1 Label: H

Ground state valence configuration (from tables):   6s02  6p00  5d07  5f00
Ground state valence configuration (from tables):   2s02  2p04  3d00  4f00
Ground state valence configuration (from tables):   1s01  2p00  3d00  4f00

---- Processing specs for species: Ir
Reading pseudopotential information in PSML from:
  Ir.psml
PSML file version: 1.1
GGA--PBE XC_GGA_X_PBE--XC_GGA_C_PBE pb
PSML uuid: e3f95a80-be45-11e7-61df-5ba3fadd20b7
Semicore shell(s) with  8 electrons included in the valence for Ir

---- Processing specs for species: O
Reading pseudopotential information in PSML from:
  O.psml
PSML file version: 1.1
GGA--PBE XC_GGA_X_PBE--XC_GGA_C_PBE pb
PSML uuid: 3cff85a0-be41-11e7-6c5c-1b1fe64d18ef

---- Processing specs for species: H
Reading pseudopotential information in PSML from:
  H.psml
PSML file version: 1.1
GGA--PBE XC_GGA_X_PBE--XC_GGA_C_PBE pb
PSML uuid: f95fa9b0-be40-11e7-634a-9594ffff953f

---- Pseudopotential check for Ir

Pseudized shells:
5s( 2.00) rc: 1.60
5p( 6.00) rc: 1.60
5d( 7.00) rc: 1.51
5f( 0.00) rc: 2.27
Valence configuration for ps generation: 5s:5p:5d:6s: Total charge:  17.000000
Semicore shell(s): 5s 5p
Fallback to non-perturbative polarization scheme for Ir
Please see the manual if this is not desired in principle

[...]

Pseudized shells:
2s( 2.00) rc: 1.36
2p( 4.00) rc: 1.46
3d( 0.00) rc: 1.26
Valence configuration for ps generation: 2s:2p: Total charge:   6.000000

---- Pseudopotential check for H

Pseudized shells:
1s( 1.00) rc: 1.01
2p( 0.00) rc: 0.71
Valence configuration for ps generation: 1s: Total charge:   1.000000
For Ir, standard SIESTA heuristics set lmxkb to 3
 (one more than the basis l, including polarization orbitals).
Use PS.lmax or PS.KBprojectors blocks to override.
For O, standard SIESTA heuristics set lmxkb to 3
 (one more than the basis l, including polarization orbitals).
Use PS.lmax or PS.KBprojectors blocks to override.
For H, standard SIESTA heuristics set lmxkb to 2
 (one more than the basis l, including polarization orbitals).
Use PS.lmax or PS.KBprojectors blocks to override.
O pseudopotential only contains V_ls up to l=2 -- lmxkb reset.
H pseudopotential only contains V_ls up to l=1 -- lmxkb reset.

<basis_specs>
Ir                   Z=  77    Mass=  192.22        Charge= 0.17977+309
Lmxo=2 Lmxkb= 3    BasisType=split      Semic=T
L=0  Nsemic=1  Cnfigmx=6
          i=1  nzeta=1  polorb=0  (5s)  (semicore shell)
            splnorm:   0.15000
               vcte:    40.000
               rinn:  -0.90000
               qcoe:    0.0000
               qyuk:    0.0000
               qwid:   0.10000E-01
                rcs:    0.0000
            lambdas:    1.0000
          i=2  nzeta=2  polorb=0  (6s)  (to be polarized non-perturbatively)
            splnorm:   0.15000
               vcte:    40.000
               rinn:  -0.90000
               qcoe:    0.0000
               qyuk:    0.0000
               qwid:   0.10000E-01
                rcs:    0.0000      0.0000
            lambdas:    1.0000      1.0000
L=1  Nsemic=1  Cnfigmx=6
          i=1  nzeta=1  polorb=0  (5p)  (semicore shell)
            splnorm:   0.15000
               vcte:    40.000
               rinn:  -0.90000
               qcoe:    0.0000
               qyuk:    0.0000
               qwid:   0.10000E-01
                rcs:    0.0000
            lambdas:    1.0000
          i=2  nzeta=1  polorb=0  (6p)  (non-perturbative polarization shell)
            splnorm:   0.15000
               vcte:    40.000
               rinn:  -0.90000
               qcoe:   0.19310-311
               qyuk:   0.19763-322
               qwid:   0.21220-312
                rcs:    0.0000
            lambdas:    1.0000
L=2  Nsemic=0  Cnfigmx=5
          i=1  nzeta=2  polorb=0  (5d)
            splnorm:   0.15000
               vcte:    40.000
               rinn:  -0.90000
               qcoe:    0.0000
               qyuk:    0.0000
               qwid:   0.10000E-01
                rcs:    0.0000      0.0000
            lambdas:    1.0000      1.0000
L=0  Nkbl=2  erefs: 0.17977+309 0.17977+309
L=1  Nkbl=2  erefs: 0.17977+309 0.17977+309
L=2  Nkbl=1  erefs: 0.17977+309
L=3  Nkbl=1  erefs: 0.17977+309
</basis_specs>

Using PAO.SplitTailNorm
atom: Called for Ir                    (Z =  77)
Maximum radius (at nrval) set to   50.00000 8518

read_vps: Pseudopotential generation method:
read_vps: ONCVPSP-3.Hamann's oncvpsp
Valence charge in pseudo generation:   17.00000

read_vps: Pseudopotential includes a core correction:
read_vps: Pseudo-core for xc-correction

xc_check: Exchange-correlation functional:
xc_check: GGA Perdew, Burke & Ernzerhof 1996
Got Vlocal (oncv-fit) from psml data
Choosing vlocal chloc cutoff:  5.047285
qtot up to nchloc:   16.99999563
atom: Maximum radius for chlocal:    5.04729
atom: Maximum radius for r*vlocal+2*Zval:    5.04729
Reading KB projs from Ir psml data
Using scalar-relativistic projectors in PSML file

PSML: Kleinman-Bylander projectors:
   l= 0   rc=  1.623671   Ekb=179.823246
   l= 0   rc=  1.625306   Ekb=  5.611620
   l= 1   rc=  1.623671   Ekb= 14.834396
   l= 1   rc=  1.625306   Ekb=  2.223076
   l= 2   rc=  1.530073   Ekb=  4.077077
   l= 2   rc=  1.530073   Ekb=  0.309986
   l= 3   rc=  2.296727   Ekb=  2.269623
   l= 3   rc=  2.296727   Ekb=  0.752356

PSML: Total number of  Kleinman-Bylander projectors:  32
atom: -------------------------------------------------------------------------

atom: SANKEY-TYPE ORBITALS:
atom: Selected multiple-zeta basis: split

SPLIT: Orbitals with angular momentum L= 0

SPLIT: Basis orbitals for state 5s

SPLIT: PAO cut-off radius determined from an
SPLIT: energy shift=  0.000735 Ry
Split based on tail norm

   izeta = 1
                 lambda =    1.000000
                     rc =    3.075858
                 energy =   -7.200986
                kinetic =    2.477874
    potential(screened) =   -9.678860
       potential(ionic) =  -31.853740

[...]

   izeta = 2
                 rmatch =    4.767082
              splitnorm =    0.150000
                 energy =   -0.487521
                kinetic =    2.717152
    potential(screened) =   -3.204673
       potential(ionic) =  -19.140876

[...]

SPLIT: Basis orbitals for state 5p

[...]

SPLIT: Basis orbitals for state 6p
SPLIT: Non-perturbative polarization orbs for state 6s
SPLIT: rc(1st zeta) (re)set to: 7.7488 (expansion factor: 1.0000)
Split based on tail norm

[...]

SPLIT: Basis orbitals for state 5d

[...]

   izeta = 2
                 rmatch =    3.625802
              splitnorm =    0.150000
                 energy =   -0.421032
                kinetic =    5.402032
    potential(screened) =   -5.823064
       potential(ionic) =  -24.703037
atom: Total number of Sankey-type orbitals: 19

atm_pop: Valence configuration (for local Pseudopot. screening):
 5s( 2.00) 6s( 2.00)
 5p( 6.00) 6p( 0.00)
 5d( 7.00)
Vna: chval, zval:   17.00000  17.00000

Vna:  Cut-off radius for the neutral-atom potential:   7.748817
comcore: Pseudo-core radius Rcore=  2.765497

atom: _________________________________________________________________________

<basis_specs>
O                    Z=   8    Mass=  15.999        Charge= 0.17977+309
Lmxo=2 Lmxkb= 2    BasisType=split      Semic=F
L=0  Nsemic=0  Cnfigmx=2
          i=1  nzeta=2  polorb=0  (2s)
            splnorm:   0.15000
               vcte:    40.000
               rinn:  -0.90000
               qcoe:    0.0000
               qyuk:    0.0000
               qwid:   0.10000E-01
                rcs:    0.0000      0.0000
            lambdas:    1.0000      1.0000
L=1  Nsemic=0  Cnfigmx=2
          i=1  nzeta=2  polorb=1  (2p)  (to be polarized perturbatively)
            splnorm:   0.15000
               vcte:    40.000
               rinn:  -0.90000
               qcoe:    0.0000
               qyuk:    0.0000
               qwid:   0.10000E-01
                rcs:    0.0000      0.0000
            lambdas:    1.0000      1.0000
L=2  Nsemic=0  Cnfigmx=3
          i=1  nzeta=0  polorb=0  (3d)  (perturbative polarization orbital) (from 2p)
L=0  Nkbl=1  erefs: 0.17977+309
L=1  Nkbl=1  erefs: 0.17977+309
L=2  Nkbl=1  erefs: 0.17977+309
</basis_specs>

[...]

read_vps: Pseudopotential includes a core correction:
read_vps: Pseudo-core for xc-correction

[...]

PSML: Kleinman-Bylander projectors:
   l= 0   rc=  1.372412   Ekb= 12.113471
   l= 0   rc=  1.372412   Ekb=  1.648048
   l= 1   rc=  1.474132   Ekb= -9.434259
   l= 1   rc=  1.474132   Ekb= -2.298541
   l= 2   rc=  1.277664   Ekb= -2.663910

[...]

SPLIT: Basis orbitals for state 2p

[...]

POLgen: Perturbative polarization orbital with L=  2

POLgen: Polarization orbital for state 2p
Split based on tail norm

   izeta = 1
                     rc =    5.912921
                 energy =    1.865729
                kinetic =    3.536681
    potential(screened) =   -1.670952
       potential(ionic) =   -7.378590
atom: Total number of Sankey-type orbitals: 13

atm_pop: Valence configuration (for local Pseudopot. screening):
 2s( 2.00)
 2p( 4.00)
 3d( 0.00)
Vna: chval, zval:    6.00000   6.00000

Vna:  Cut-off radius for the neutral-atom potential:   5.912921
comcore: Pseudo-core radius Rcore=  1.354557

[...]

<basis_specs>
H                    Z=   1    Mass=  1.0080        Charge= 0.17977+309
Lmxo=1 Lmxkb= 1    BasisType=split      Semic=F
L=0  Nsemic=0  Cnfigmx=1
          i=1  nzeta=2  polorb=1  (1s)  (to be polarized perturbatively)
            splnorm:   0.15000
               vcte:    40.000
               rinn:  -0.90000
               qcoe:    0.0000
               qyuk:    0.0000
               qwid:   0.10000E-01
                rcs:    0.0000      0.0000
            lambdas:    1.0000      1.0000
L=1  Nsemic=0  Cnfigmx=2
          i=1  nzeta=0  polorb=0  (2p)  (perturbative polarization orbital) (from 1s)
L=0  Nkbl=1  erefs: 0.17977+309
L=1  Nkbl=1  erefs: 0.17977+309
</basis_specs>

Using PAO.SplitTailNorm
atom: Called for H                     (Z =   1)
Maximum radius (at nrval) set to   50.00000 8518

read_vps: Pseudopotential generation method:
read_vps: ONCVPSP-3.Hamann's oncvpsp
Valence charge in pseudo generation:    1.00000

xc_check: Exchange-correlation functional:
xc_check: GGA Perdew, Burke & Ernzerhof 1996
Got Vlocal (oncv-fit) from psml data
Choosing vlocal chloc cutoff:  1.926399
qtot up to nchloc:    0.99999831
atom: Maximum radius for chlocal:    1.92640
[...]
   Tot    0.001047   -0.000648   -0.000634
   Max    7.421115
   Res    2.084547    sqrt( Sum f_i^2 / 3N )
   Max    7.421115    constrained

Stress tensor Voigt[x,y,z,yz,xz,xy] (kbar):       10.81        8.64       22.09       -0.53       -0.16        0.72
(Free)E + p*V (eV/cell)    -8543.6541
Target enthalpy (eV/cell)    -8536.6382

[...]

outcell: Cell vector modules (Ang)   :    4.505314    4.505314   40.000000
outcell: Cell angles (23,13,12) (deg):     90.0000     90.0000     90.0000
outcell: Cell volume (Ang**3)        :    811.9141
Gamma-point calculation with interaction between periodic images
Gamma-point calculation with interaction between periodic images
Some features might not work optimally:
Some features might not work optimally:
e.g. DM initialization from atomic data
e.g. DM initialization from atomic data
<dSpData1D:S at geom step 1
  <sparsity:sparsity for geom step 1
    nrows_g=113 nrows=113 sparsity=.9718 nnzs=12409, refcount: 7>
  <dData1D:(new from dSpData1D) n=12409, refcount: 1>
refcount: 1>
new_DM -- step:     2
Re-using DM from previous geometries...
Number of DMs in history: 1
 DM extrapolation coefficients:
1   1.00000
New DM after history re-use:
<dSpData2D:SpM extrapolated using coords
  <sparsity:sparsity for geom step 1
    nrows_g=113 nrows=113 sparsity=.9718 nnzs=12409, refcount: 9>
  <dData2D:(temp array for extrapolation) n=12409 m=1, refcount: 1>
refcount: 1>
No. of atoms with KB's overlaping orbs in proc 0. Max # of overlaps:       9     250

[...]

        iscf     Eharris(eV)        E_KS(eV)     FreeEng(eV)     dDmax    Ef(eV) dHmax(eV)
   scf:    1    -8537.101841    -8537.640020    -8537.640020  0.109993 -4.715129  0.901516
   scf:    2    -8520.025391    -8531.928728    -8531.928728  0.209943 -4.145916  9.756789
   scf:    3    -8537.640539    -8537.677261    -8537.677261  0.196812 -4.619776  0.603892
   scf:    4    -8537.691420    -8537.686952    -8537.686952  0.009901 -4.542903  0.156410
   scf:    5    -8537.688196    -8537.687665    -8537.687665  0.004664 -4.514588  0.070345
   scf:    6    -8537.684861    -8537.687074    -8537.687074  0.004437 -4.503827  0.112818
   scf:    7    -8537.687747    -8537.687893    -8537.687893  0.002984 -4.506129  0.019748
   scf:    8    -8537.687940    -8537.687921    -8537.687921  0.000475 -4.503809  0.007269
   scf:    9    -8537.687935    -8537.687930    -8537.687930  0.000335 -4.503222  0.006711
   scf:   10    -8537.687915    -8537.687928    -8537.687928  0.000252 -4.502344  0.011160
   scf:   11    -8537.687934    -8537.687935    -8537.687935  0.000276 -4.502583  0.004350
   scf:   12    -8537.687937    -8537.687936    -8537.687936  0.000092 -4.502514  0.002786
   scf:   13    -8537.687932    -8537.687935    -8537.687935  0.000138 -4.501989  0.006055
   scf:   14    -8537.687936    -8537.687937    -8537.687937  0.000124 -4.502259  0.002006
   scf:   15    -8537.687938    -8537.687937    -8537.687937  0.000043 -4.502197  0.001198
   scf:   16    -8537.687937    -8537.687937    -8537.687937  0.000047 -4.501982  0.001983
   scf:   17    -8537.687937    -8537.687937    -8537.687937  0.000038 -4.502099  0.000925

[...]

cgvc: Finished line minimization    1.  Mean atomic displacement =    0.2176

[...]

outcell: Cell vector modules (Ang)   :    4.505314    4.505314   40.000000
outcell: Cell angles (23,13,12) (deg):     90.0000     90.0000     90.0000
outcell: Cell volume (Ang**3)        :    811.9141
Gamma-point calculation with interaction between periodic images
Gamma-point calculation with interaction between periodic images
Some features might not work optimally:
Some features might not work optimally:
e.g. DM initialization from atomic data
e.g. DM initialization from atomic data
<dSpData1D:S at geom step 8
  <sparsity:sparsity for geom step 8
    nrows_g=113 nrows=113 sparsity=.9604 nnzs=12263, refcount: 7>
  <dData1D:(new from dSpData1D) n=12263, refcount: 1>
refcount: 1>
new_DM -- step:     9
Re-using DM from previous geometries...
Number of DMs in history: 1
 DM extrapolation coefficients:
1   1.00000
New DM after history re-use:
<dSpData2D:SpM extrapolated using coords
  <sparsity:sparsity for geom step 8
    nrows_g=113 nrows=113 sparsity=.9604 nnzs=12263, refcount: 9>
  <dData2D:(temp array for extrapolation) n=12263 m=1, refcount: 1>
refcount: 1>
Note: For starting DM, Qtot, Tr[D*S] =         66.00000000         66.09560294
No. of atoms with KB's overlaping orbs in proc 0. Max # of overlaps:       9     232

[...]

outcell: Cell vector modules (Ang)   :    4.505314    4.505314   40.000000
outcell: Cell angles (23,13,12) (deg):     90.0000     90.0000     90.0000
outcell: Cell volume (Ang**3)        :    811.9141
Gamma-point calculation with interaction between periodic images
Gamma-point calculation with interaction between periodic images
Some features might not work optimally:
Some features might not work optimally:
e.g. DM initialization from atomic data
e.g. DM initialization from atomic data
<dSpData1D:S at geom step 9
  <sparsity:sparsity for geom step 9
    nrows_g=113 nrows=113 sparsity=.9588 nnzs=12243, refcount: 7>
  <dData1D:(new from dSpData1D) n=12243, refcount: 1>
refcount: 1>
new_DM -- step:    10
Re-using DM from previous geometries...
Number of DMs in history: 1
 DM extrapolation coefficients:
1   1.00000
New DM after history re-use:
<dSpData2D:SpM extrapolated using coords
  <sparsity:sparsity for geom step 9
    nrows_g=113 nrows=113 sparsity=.9588 nnzs=12243, refcount: 9>
  <dData2D:(temp array for extrapolation) n=12243 m=1, refcount: 1>
refcount: 1>
Note: For starting DM, Qtot, Tr[D*S] =         66.00000000         65.91542439
No. of atoms with KB's overlaping orbs in proc 0. Max # of overlaps:       9     232

[...]

cgvc: Finished line minimization    5.  Mean atomic displacement =    0.0319

                        Begin CG opt. move =     15

outcell: Unit cell vectors (Ang):
        4.505314    0.000000    0.000000
        0.000000    4.505314    0.000000
        0.000000    0.000000   40.000000

outcell: Cell vector modules (Ang)   :    4.505314    4.505314   40.000000
outcell: Cell angles (23,13,12) (deg):     90.0000     90.0000     90.0000
outcell: Cell volume (Ang**3)        :    811.9141
Gamma-point calculation with interaction between periodic images
Gamma-point calculation with interaction between periodic images
Some features might not work optimally:
Some features might not work optimally:
e.g. DM initialization from atomic data
e.g. DM initialization from atomic data
<dSpData1D:S at geom step 15
  <sparsity:sparsity for geom step 15
    nrows_g=113 nrows=113 sparsity=.9615 nnzs=12277, refcount: 7>
  <dData1D:(new from dSpData1D) n=12277, refcount: 1>
refcount: 1>
new_DM -- step:    16
Re-using DM from previous geometries...
Number of DMs in history: 1
 DM extrapolation coefficients:
1   1.00000
New DM after history re-use:
<dSpData2D:SpM extrapolated using coords
  <sparsity:sparsity for geom step 15
    nrows_g=113 nrows=113 sparsity=.9615 nnzs=12277, refcount: 9>
  <dData2D:(temp array for extrapolation) n=12277 m=1, refcount: 1>
refcount: 1>
No. of atoms with KB's overlaping orbs in proc 0. Max # of overlaps:       9     232

InitMesh: MESH = 48 x 48 x 432 = 995328
InitMesh: Mesh cutoff (required, used) =   300.000   313.714 Ry
New grid distribution [1]: sub = 2

        iscf     Eharris(eV)        E_KS(eV)     FreeEng(eV)     dDmax    Ef(eV) dHmax(eV)
   scf:    1    -8540.498159    -8540.706231    -8540.706231  0.045934 -4.710392  0.523480
   scf:    2    -8539.029132    -8540.175337    -8540.175337  0.064119 -4.510703  2.330209
   scf:    3    -8540.727091    -8540.716524    -8540.716524  0.056306 -4.639658  0.253884
   scf:    4    -8540.718843    -8540.718315    -8540.718315  0.003592 -4.613008  0.073130
   scf:    5    -8540.717874    -8540.718273    -8540.718273  0.002489 -4.599190  0.083813
   scf:    6    -8540.717485    -8540.718289    -8540.718289  0.002064 -4.595316  0.077298
   scf:    7    -8540.718522    -8540.718526    -8540.718526  0.001170 -4.588646  0.015586
   scf:    8    -8540.718534    -8540.718534    -8540.718534  0.000354 -4.586509  0.012485
   scf:    9    -8540.718534    -8540.718536    -8540.718536  0.000296 -4.584387  0.008835
   scf:   10    -8540.718537    -8540.718538    -8540.718538  0.000197 -4.583782  0.006150
   scf:   11    -8540.718538    -8540.718539    -8540.718539  0.000106 -4.583026  0.004497
   scf:   12    -8540.718539    -8540.718539    -8540.718539  0.000077 -4.582737  0.003360
   scf:   13    -8540.718539    -8540.718539    -8540.718539  0.000051 -4.582429  0.001943
   scf:   14    -8540.718539    -8540.718539    -8540.718539  0.000033 -4.582239  0.001437
   scf:   15    -8540.718539    -8540.718539    -8540.718539  0.000023 -4.582087  0.001002
   scf:   16    -8540.718540    -8540.718540    -8540.718540  0.000019 -4.581987  0.000795

SCF Convergence by DM+H criterion
max |DM_out - DM_in|         :     0.0000186972
max |H_out - H_in|      (eV) :     0.0007950377
SCF cycle converged after 16 iterations

Using DM_out to compute the final energy and forces
No. of atoms with KB's overlaping orbs in proc 0. Max # of overlaps:       9     232

siesta: E_KS(eV) =            -8540.7185

siesta: Atomic forces (eV/Ang):
   Tot    0.000993    0.001389    0.001409
   Max    0.265479
   Res    0.121244    sqrt( Sum f_i^2 / 3N )
   Max    0.265479    constrained

Stress tensor Voigt[x,y,z,yz,xz,xy] (kbar):      -28.12      -28.18        0.70       -0.15       -0.13        0.77
(Free)E + p*V (eV/cell)    -8531.3270
Target enthalpy (eV/cell)    -8540.7185

outcoor: Final (unrelaxed) atomic coordinates (Ang):
    0.00201044   -0.00505813    9.74350826   1       1  Ir
    2.25246091    2.24924822   10.28775396   1       2  Ir
    1.03502247    3.46551486   10.89837622   2       3  O
    3.46847822    1.03672649   10.88800195   2       4  O
    3.28931992    3.28848003    9.13751855   2       5  O
    1.21399466    1.21074605    9.13672509   2       6  O
    2.24873272    2.25168075   13.72916815   2       7  O
    3.01572293    2.85477369   13.78851438   3       8  H
    1.48811532    2.86055653   13.77226848   3       9  H

coxmol: Writing XMOL coordinates into file optimization_simulacio1.xyz

siesta: Program's energy decomposition (eV):
siesta: Ebs     =     -1704.416542
siesta: Eions   =     11676.787763
siesta: Ena     =      1622.948618
siesta: Ekin    =      3294.321316
siesta: Enl     =       -31.036761
siesta: Eso     =         0.000000
siesta: Edftu   =         0.000000
siesta: DEna    =        16.746081
siesta: DUscf   =         5.274734
siesta: DUext   =         0.000000
siesta: Ex      =     -1663.048738
siesta: Ec      =      -109.136028
siesta: Exc     =     -1772.184766
siesta: EbV     =         0.000000
siesta: eta*DQ  =         0.000000
siesta: Emadel  =         0.000000
siesta: Emeta   =         0.000000
siesta: Emolmec =         0.000000
siesta: Ekinion =         0.000000
siesta: Eharris =     -8540.718540
siesta: Etot    =     -8540.718540
siesta: FreeEng =     -8540.718540

siesta: Final energy (eV):
siesta:  Band Struct. =   -1704.416542
siesta:       Kinetic =    3294.321316
siesta:       Hartree =   53081.710089
siesta:         Edftu =       0.000000
siesta:       Eso     =       0.000000
siesta:    Ext. field =       0.000000
siesta:         Exch. =   -1663.048738
siesta:         Corr. =    -109.136028
siesta:     Bulk bias =       0.000000
siesta:   Exch.-corr. =   -1772.184766
siesta:  Ion-electron = -109661.350955
siesta:       Ion-ion =   46516.785777
siesta:       Ekinion =       0.000000
siesta: D3 dispersion =       0.000000
siesta:         Total =   -8540.718540
siesta:         Fermi =      -4.581987

siesta: Atomic forces (eV/Ang):
siesta:      1   -0.049027    0.005834    0.176510
siesta:      2   -0.082455    0.069542   -0.062522
siesta:      3   -0.060935    0.060923    0.145449
siesta:      4    0.152550   -0.156161    0.112628
siesta:      5   -0.106900   -0.123846   -0.103698
siesta:      6    0.138345    0.115216   -0.094387
siesta:      7    0.100028   -0.265479   -0.091332
siesta:      8    0.085363    0.098273   -0.016951
siesta:      9   -0.175975    0.197087   -0.064289
siesta: ----------------------------------------
siesta:    Tot    0.000993    0.001389    0.001409

siesta: Stress tensor (static) (eV/Ang**3):
siesta:    -0.017552    0.000478   -0.000080
siesta:     0.000478   -0.017586   -0.000095
siesta:    -0.000081   -0.000095    0.000437

siesta: Cell volume =        811.914123 Ang**3

siesta: Pressure (static):
siesta:                Solid            Molecule  Units
siesta:           0.00012598          0.00012515  Ry/Bohr**3
siesta:           0.01156710          0.01149086  eV/Ang**3
siesta:          18.53254458         18.41038306  kBar
(Free)E+ p_basis*V_orbitals  =       -8540.152275
(Free)Eharris+ p_basis*V_orbitals  =       -8540.152275

siesta: Electric dipole (a.u.)  =   -0.000000   -0.000000    0.155633
siesta: Electric dipole (Debye) =   -0.000000   -0.000000    0.395581

cite: Please see "optimization_simulacio1.bib" for an exhaustive BiBTeX file.
cite: Please clearly indicate Siesta version in published work: 5.2.1
cite: This calculation has made use of the following articles
cite: which are encouraged to be cited in a published work.
        Primary SIESTA paper
          DOI: www.doi.org/10.1088/0953-8984/14/11/302

Routine            Calls   Time/call    Tot.time        %
siesta                 1     551.555     551.555   100.00
Setup                  1       1.163       1.163     0.21
bands                  1       0.000       0.000     0.00
KSV_init               1       0.000       0.000     0.00
IterGeom              16      34.399     550.389    99.79
geom_init             16       2.609      41.746     7.57
state_init            16       0.140       2.241     0.41
hsparse               16       0.006       0.094     0.02
overlap               16       0.134       2.139     0.39
Setup_H0              16       1.742      27.867     5.05
naefs                 32       0.000       0.003     0.00
dnaefs                32       0.000       0.001     0.00
MolMec                32       0.000       0.000     0.00
kinefsm               32       0.072       2.317     0.42
nlefsm                32       0.432      13.825     2.51
DHSCF_Init            16       0.795      12.716     2.31
DHSCF1                16       0.036       0.568     0.10
InitMesh              16       0.035       0.568     0.10
INITMESH              16       0.000       0.000     0.00
DHSCF2                16       0.759      12.147     2.20
REMESH                16       0.062       1.000     0.18
REORD                820       0.001       0.925     0.17
PHION                 16       0.578       9.248     1.68
COMM_BSC            1208       0.001       0.954     0.17
POISON               306       0.038      11.523     2.09
fft                  612       0.014       8.370     1.52
setup_H              274       1.677     459.548    83.32
DHSCF                290       1.759     510.009    92.47
DHSCF3               290       1.624     470.889    85.37
rhoofd               290       1.173     340.104    61.66
XC                   290       0.138      40.006     7.25
GXC-CellXC           290       0.135      39.080     7.09
gridxc@cellXC        290       0.135      39.078     7.09
vmat                 290       0.226      65.621    11.90
IterSCF              258       1.770     456.648    82.79
compute_dm           258       0.033       8.632     1.57
diagon               258       0.033       8.568     1.55
r-eigvec             258       0.018       4.592     0.83
r-buildHS            258       0.000       0.006     0.00
rdiag                258       0.018       4.583     0.83
rdiag1               258       0.002       0.388     0.07
rdiag2               258       0.002       0.566     0.10
rdiag3               258       0.014       3.524     0.64
rdiag4               258       0.000       0.088     0.02
r-buildD             258       0.015       3.889     0.71
MIXER                242       0.000       0.017     0.00
PostSCF               16       3.249      51.985     9.43
FINAL_HF              16       3.249      51.985     9.43
DHSCF4                16       2.445      39.117     7.09
dfscf                 16       2.346      37.534     6.81
overfsm               16       0.011       0.177     0.03
writeHSX              16       0.000       0.003     0.00
state_analysis        16       0.000       0.002     0.00
siesta_move           16       0.000       0.004     0.00
Analysis               1       0.000       0.000     0.00
optical                1       0.000       0.000     0.00

>> End of run:   1-JUL-2025  23:02:02
Job completed
Job completed