 NOTE: Siesta V5 introduces some new defaults for basis-set generation
 NOTE: which might lead to slightly different numerical results.
 NOTE: Please see the manual for full details and compatibility measures.

reinit: Reading from file xoc_IrO2_H2O_simulacio1.fdf

reinit: -----------------------------------------------------------------------
reinit: System Name: IrO2 + H2O collition
reinit: -----------------------------------------------------------------------
reinit: System Label: simulacio1
reinit: -----------------------------------------------------------------------

initatom: Reading input for the pseudopotentials and atomic orbitals ----------
Species number:   1 Atomic number:    8 Label: O
Species number:   2 Atomic number:    1 Label: H
Species number:   3 Atomic number:   77 Label: Ir

Ground state valence configuration (from tables):   2s02  2p04  3d00  4f00
Ground state valence configuration (from tables):   1s01  2p00  3d00  4f00
Ground state valence configuration (from tables):   6s02  6p00  5d07  5f00

---- Processing specs for species: O
Reading pseudopotential information in PSML from:
  O.psml
PSML file version: 1.1
GGA--PBE XC_GGA_X_PBE--XC_GGA_C_PBE pb
PSML uuid: 3cff85a0-be41-11e7-6c5c-1b1fe64d18ef

---- Processing specs for species: H
Reading pseudopotential information in PSML from:
  H.psml
PSML file version: 1.1
GGA--PBE XC_GGA_X_PBE--XC_GGA_C_PBE pb
PSML uuid: f95fa9b0-be40-11e7-634a-9594ffff953f

---- Processing specs for species: Ir
Reading pseudopotential information in PSML from:
  Ir.psml
PSML file version: 1.1
GGA--PBE XC_GGA_X_PBE--XC_GGA_C_PBE pb
PSML uuid: e3f95a80-be45-11e7-61df-5ba3fadd20b7
Semicore shell(s) with  8 electrons included in the valence for Ir

---- Pseudopotential check for O

Pseudized shells:
2s( 2.00) rc: 1.36
2p( 4.00) rc: 1.46
3d( 0.00) rc: 1.26
Valence configuration for ps generation: 2s:2p: Total charge:   6.000000

[...]

Pseudized shells:
1s( 1.00) rc: 1.01
2p( 0.00) rc: 0.71
Valence configuration for ps generation: 1s: Total charge:   1.000000

---- Pseudopotential check for Ir

Pseudized shells:
5s( 2.00) rc: 1.60
5p( 6.00) rc: 1.60
5d( 7.00) rc: 1.51
5f( 0.00) rc: 2.27
Valence configuration for ps generation: 5s:5p:5d:6s: Total charge:  17.000000
Semicore shell(s): 5s 5p
Fallback to non-perturbative polarization scheme for Ir
Please see the manual if this is not desired in principle
For O, standard SIESTA heuristics set lmxkb to 3
 (one more than the basis l, including polarization orbitals).
Use PS.lmax or PS.KBprojectors blocks to override.
For H, standard SIESTA heuristics set lmxkb to 2
 (one more than the basis l, including polarization orbitals).
Use PS.lmax or PS.KBprojectors blocks to override.
For Ir, standard SIESTA heuristics set lmxkb to 3
 (one more than the basis l, including polarization orbitals).
Use PS.lmax or PS.KBprojectors blocks to override.
O pseudopotential only contains V_ls up to l=2 -- lmxkb reset.
H pseudopotential only contains V_ls up to l=1 -- lmxkb reset.

<basis_specs>
O                    Z=   8    Mass=  15.999        Charge= 0.17977+309
Lmxo=2 Lmxkb= 2    BasisType=split      Semic=F
L=0  Nsemic=0  Cnfigmx=2
          i=1  nzeta=1  polorb=0  (2s)
            splnorm:   0.15000
               vcte:    40.000
               rinn:  -0.90000
               qcoe:    0.0000
               qyuk:    0.0000
               qwid:   0.10000E-01
                rcs:    0.0000
            lambdas:    1.0000
L=1  Nsemic=0  Cnfigmx=2
          i=1  nzeta=1  polorb=1  (2p)  (to be polarized perturbatively)
            splnorm:   0.15000
               vcte:    40.000
               rinn:  -0.90000
               qcoe:    0.0000
               qyuk:    0.0000
               qwid:   0.10000E-01
                rcs:    0.0000
            lambdas:    1.0000
L=2  Nsemic=0  Cnfigmx=3
          i=1  nzeta=0  polorb=0  (3d)  (perturbative polarization orbital) (from 2p)
L=0  Nkbl=1  erefs: 0.17977+309
L=1  Nkbl=1  erefs: 0.17977+309
L=2  Nkbl=1  erefs: 0.17977+309
</basis_specs>

Using PAO.SplitTailNorm
atom: Called for O                     (Z =   8)
Maximum radius (at nrval) set to   50.00000 8518

read_vps: Pseudopotential generation method:
read_vps: ONCVPSP-3.Hamann's oncvpsp
Valence charge in pseudo generation:    6.00000

read_vps: Pseudopotential includes a core correction:
read_vps: Pseudo-core for xc-correction

xc_check: Exchange-correlation functional:
xc_check: GGA Perdew, Burke & Ernzerhof 1996
Got Vlocal (oncv-fit) from psml data
Choosing vlocal chloc cutoff:  6.020499
qtot up to nchloc:    6.00001015
atom: Maximum radius for chlocal:    6.02050
atom: Maximum radius for r*vlocal+2*Zval:    6.02050
Reading KB projs from O psml data
Using scalar-relativistic projectors in PSML file

PSML: Kleinman-Bylander projectors:
   l= 0   rc=  1.372412   Ekb= 12.113471
   l= 0   rc=  1.372412   Ekb=  1.648048
   l= 1   rc=  1.474132   Ekb= -9.434259
   l= 1   rc=  1.474132   Ekb= -2.298541
   l= 2   rc=  1.277664   Ekb= -2.663910

PSML: Total number of  Kleinman-Bylander projectors:  13
atom: -------------------------------------------------------------------------

atom: SANKEY-TYPE ORBITALS:

SPLIT: Orbitals with angular momentum L= 0

SPLIT: Basis orbitals for state 2s

SPLIT: PAO cut-off radius determined from an
SPLIT: energy shift=  0.010000 Ry
Split based on tail norm

   izeta = 1
                 lambda =    1.000000
                     rc =    3.532490
                 energy =   -1.750073
                kinetic =    1.592274
    potential(screened) =   -3.342346
       potential(ionic) =  -11.245343

[...]

SPLIT: Basis orbitals for state 2p

[...]

POLgen: Perturbative polarization orbital with L=  2

POLgen: Polarization orbital for state 2p
Split based on tail norm

   izeta = 1
                     rc =    4.299534
                 energy =    2.238408
                kinetic =    4.166258
    potential(screened) =   -1.927850
       potential(ionic) =   -8.042214
atom: Total number of Sankey-type orbitals:  9

atm_pop: Valence configuration (for local Pseudopot. screening):
 2s( 2.00)
 2p( 4.00)
 3d( 0.00)
Vna: chval, zval:    6.00000   6.00000

Vna:  Cut-off radius for the neutral-atom potential:   4.299534
comcore: Pseudo-core radius Rcore=  1.354557

atom: _________________________________________________________________________

<basis_specs>
H                    Z=   1    Mass=  1.0080        Charge= 0.17977+309
Lmxo=1 Lmxkb= 1    BasisType=split      Semic=F
L=0  Nsemic=0  Cnfigmx=1
          i=1  nzeta=1  polorb=1  (1s)  (to be polarized perturbatively)
            splnorm:   0.15000
               vcte:    40.000
               rinn:  -0.90000
               qcoe:    0.0000
               qyuk:    0.0000
               qwid:   0.10000E-01
                rcs:    0.0000
            lambdas:    1.0000
L=1  Nsemic=0  Cnfigmx=2
          i=1  nzeta=0  polorb=0  (2p)  (perturbative polarization orbital) (from 1s)
L=0  Nkbl=1  erefs: 0.17977+309
L=1  Nkbl=1  erefs: 0.17977+309
</basis_specs>

[...]

PSML: Kleinman-Bylander projectors:
   l= 0   rc=  1.022342   Ekb= -3.402247
   l= 0   rc=  1.022342   Ekb= -1.068968
   l= 1   rc=  0.714575   Ekb= -1.006642

[...]

POLgen: Perturbative polarization orbital with L=  1

POLgen: Polarization orbital for state 1s
Split based on tail norm

   izeta = 1
                     rc =    5.232664
                 energy =    0.682216
                kinetic =    1.337348
    potential(screened) =   -0.655132
       potential(ionic) =   -1.143559
atom: Total number of Sankey-type orbitals:  4

atm_pop: Valence configuration (for local Pseudopot. screening):
 1s( 1.00)
 2p( 0.00)
Vna: chval, zval:    1.00000   1.00000

Vna:  Cut-off radius for the neutral-atom potential:   5.232664

[...]

<basis_specs>
Ir                   Z=  77    Mass=  192.22        Charge= 0.17977+309
Lmxo=2 Lmxkb= 3    BasisType=split      Semic=T
L=0  Nsemic=1  Cnfigmx=6
          i=1  nzeta=1  polorb=0  (5s)  (semicore shell)
            splnorm:   0.15000
               vcte:    40.000
               rinn:  -0.90000
               qcoe:    0.0000
               qyuk:    0.0000
               qwid:   0.10000E-01
                rcs:    0.0000
            lambdas:    1.0000
          i=2  nzeta=1  polorb=0  (6s)  (to be polarized non-perturbatively)
            splnorm:   0.15000
               vcte:    40.000
               rinn:  -0.90000
               qcoe:    0.0000
               qyuk:    0.0000
               qwid:   0.10000E-01
                rcs:    0.0000
            lambdas:    1.0000
L=1  Nsemic=1  Cnfigmx=6
          i=1  nzeta=1  polorb=0  (5p)  (semicore shell)
            splnorm:   0.15000
               vcte:    40.000
               rinn:  -0.90000
               qcoe:    0.0000
               qyuk:    0.0000
               qwid:   0.10000E-01
                rcs:    0.0000
            lambdas:    1.0000
          i=2  nzeta=1  polorb=0  (6p)  (non-perturbative polarization shell)
            splnorm:   0.15000
               vcte:    40.000
               rinn:  -0.90000
               qcoe:   0.19310-311
               qyuk:   0.19763-322
               qwid:   0.21220-312
                rcs:    0.0000
            lambdas:    1.0000
L=2  Nsemic=0  Cnfigmx=5
          i=1  nzeta=1  polorb=0  (5d)
            splnorm:   0.15000
               vcte:    40.000
               rinn:  -0.90000
               qcoe:    0.0000
               qyuk:    0.0000
               qwid:   0.10000E-01
                rcs:    0.0000
            lambdas:    1.0000
L=0  Nkbl=2  erefs: 0.17977+309 0.17977+309
L=1  Nkbl=2  erefs: 0.17977+309 0.17977+309
L=2  Nkbl=1  erefs: 0.17977+309
L=3  Nkbl=1  erefs: 0.17977+309
</basis_specs>

Using PAO.SplitTailNorm
atom: Called for Ir                    (Z =  77)
Maximum radius (at nrval) set to   50.00000 8518

read_vps: Pseudopotential generation method:
read_vps: ONCVPSP-3.Hamann's oncvpsp
Valence charge in pseudo generation:   17.00000

read_vps: Pseudopotential includes a core correction:
read_vps: Pseudo-core for xc-correction

xc_check: Exchange-correlation functional:
xc_check: GGA Perdew, Burke & Ernzerhof 1996
Got Vlocal (oncv-fit) from psml data
Choosing vlocal chloc cutoff:  5.047285
qtot up to nchloc:   16.99999563
atom: Maximum radius for chlocal:    5.04729
atom: Maximum radius for r*vlocal+2*Zval:    5.04729
Reading KB projs from Ir psml data
Using scalar-relativistic projectors in PSML file

PSML: Kleinman-Bylander projectors:
   l= 0   rc=  1.623671   Ekb=179.823246
   l= 0   rc=  1.625306   Ekb=  5.611620
   l= 1   rc=  1.623671   Ekb= 14.834396
   l= 1   rc=  1.625306   Ekb=  2.223076
   l= 2   rc=  1.530073   Ekb=  4.077077
   l= 2   rc=  1.530073   Ekb=  0.309986
   l= 3   rc=  2.296727   Ekb=  2.269623
   l= 3   rc=  2.296727   Ekb=  0.752356

PSML: Total number of  Kleinman-Bylander projectors:  32
atom: -------------------------------------------------------------------------

atom: SANKEY-TYPE ORBITALS:

[...]

SPLIT: Basis orbitals for state 6s

[...]

SPLIT: Basis orbitals for state 5p

[...]

SPLIT: Basis orbitals for state 6p
SPLIT: Non-perturbative polarization orbs for state 6s
[...]
ts: Only save the overlap matrix S                  =    F
ts: **************************************************************

************************ Begin: TS CHECKS AND WARNINGS ************************
************************ End: TS CHECKS AND WARNINGS **************************

                        Begin MD step =      1

outcell: Unit cell vectors (Ang):
       20.000000    0.000000    0.000000
        0.000000   20.000000    0.000000
        0.000000    0.000000   20.000000

outcell: Cell vector modules (Ang)   :   20.000000   20.000000   20.000000
outcell: Cell angles (23,13,12) (deg):     90.0000     90.0000     90.0000
outcell: Cell volume (Ang**3)        :   8000.0000
<dSpData1D:S at geom step 1
  <sparsity:sparsity for geom step 1
    nrows_g=79 nrows=79 sparsity=.6789 nnzs=4237, refcount: 7>
  <dData1D:(new from dSpData1D) n=4237, refcount: 1>
refcount: 1>
new_DM -- step:     1
Initializing Density Matrix...

Attempting to read DM from file... Failed...
DM filled with atomic data:
<dSpData2D:DM initialized from atoms
  <sparsity:sparsity for geom step 1
    nrows_g=79 nrows=79 sparsity=.6789 nnzs=4237, refcount: 8>
  <dData2D:DM n=4237 m=1, refcount: 1>
refcount: 1>
No. of atoms with KB's overlaping orbs in proc 0. Max # of overlaps:       9      59

InitMesh: MESH = 180 x 180 x 180 = 5832000
InitMesh: Mesh cutoff (required, used) =   200.000   223.865 Ry
New grid distribution [1]: sub = 2

stepf: Fermi-Dirac step function

siesta: Program's energy decomposition (eV):
siesta: Ebs     =     -1742.642959
siesta: Eions   =     11676.786863
siesta: Ena     =      1574.677460
siesta: Ekin    =      3388.516978
siesta: Enl     =      -140.387753
siesta: Eso     =         0.000000
siesta: Edftu   =         0.000000
siesta: DEna    =        86.482445
siesta: DUscf   =        99.987691
siesta: DUext   =         0.000000
siesta: Ex      =     -1676.779736
siesta: Ec      =      -106.523970
siesta: Exc     =     -1783.303706
siesta: EbV     =         0.000000
siesta: eta*DQ  =         0.000000
siesta: Emadel  =         0.000000
siesta: Emeta   =         0.000000
siesta: Emolmec =         0.000000
siesta: Ekinion =         0.000000
siesta: Eharris =     -8336.744266
siesta: Etot    =     -8450.813748
siesta: FreeEng =     -8450.813748

SCF Convergence by DM+H criterion
max |DM_out - DM_in|         :     0.0000684227
max |H_out - H_in|      (eV) :     0.0007384809
SCF cycle converged after 42 iterations

Using DM_out to compute the final energy and forces
No. of atoms with KB's overlaping orbs in proc 0. Max # of overlaps:       9      59

siesta: E_KS(eV) =            -8521.9513

siesta: E_KS - E_eggbox =     -8521.9513

siesta: Atomic forces (eV/Ang):
   Tot   -0.005460   -0.020169    0.009779
   Max    2.826962
   Res    1.292034    sqrt( Sum f_i^2 / 3N )
   Max    2.826962    constrained

Stress tensor Voigt[x,y,z,yz,xz,xy] (kbar):        0.62        0.71        0.08       -0.41       -0.34       -0.14
(Free)E + p*V (eV/cell)    -8524.2937
Target enthalpy (eV/cell)    -8521.9513

siesta: Stress tensor (static) (eV/Ang**3):
         0.000418   -0.000114   -0.000225
        -0.000114    0.000502   -0.000227
        -0.000225   -0.000227    0.000139

siesta: Pressure (static):         -0.56575585  kBar

siesta: Stress tensor (total) (eV/Ang**3):
         0.000389   -0.000090   -0.000213
        -0.000090    0.000441   -0.000255
        -0.000213   -0.000255    0.000048

siesta: Pressure (total):         -0.46911042  kBar

siesta: Temp_ion =     700.000 K

[...]

outcell: Cell vector modules (Ang)   :   20.000000   20.000000   20.000000
outcell: Cell angles (23,13,12) (deg):     90.0000     90.0000     90.0000
outcell: Cell volume (Ang**3)        :   8000.0000
<dSpData1D:S at geom step 2
  <sparsity:sparsity for geom step 2
    nrows_g=79 nrows=79 sparsity=.6789 nnzs=4237, refcount: 7>
  <dData1D:(new from dSpData1D) n=4237, refcount: 1>
refcount: 1>
new_DM -- step:     2
Re-using DM from previous geometries...
Number of DMs in history: 1
 DM extrapolation coefficients:
1   1.00000
New DM after history re-use:
<dSpData2D:SpM extrapolated using coords
  <sparsity:sparsity for geom step 2
    nrows_g=79 nrows=79 sparsity=.6789 nnzs=4237, refcount: 9>
  <dData2D:(temp array for extrapolation) n=4237 m=1, refcount: 1>
refcount: 1>
No. of atoms with KB's overlaping orbs in proc 0. Max # of overlaps:       9      59

[...]

        iscf     Eharris(eV)        E_KS(eV)     FreeEng(eV)     dDmax    Ef(eV) dHmax(eV)
   scf:    1    -8521.767810    -8521.848690    -8521.848690  0.024207 -2.938116  0.399240
   scf:    2    -8517.692315    -8520.502006    -8520.502010  0.130701 -2.859465  5.293063
   scf:    3    -8521.936918    -8521.857626    -8521.857626  0.123173 -2.933078  0.117236
   scf:    4    -8521.858501    -8521.858179    -8521.858179  0.001772 -2.931134  0.074153
   scf:    5    -8521.858493    -8521.858353    -8521.858353  0.000661 -2.929307  0.074906
   scf:    6    -8521.859216    -8521.858897    -8521.858898  0.002563 -2.918639  0.053228
   scf:    7    -8521.858985    -8521.858995    -8521.858996  0.001397 -2.908943  0.038747
   scf:    8    -8521.858753    -8521.858931    -8521.858931  0.001043 -2.904276  0.048325
   scf:    9    -8521.859003    -8521.859021    -8521.859021  0.000898 -2.902783  0.018193
   scf:   10    -8521.859025    -8521.859023    -8521.859024  0.000110 -2.901659  0.015979
   scf:   11    -8521.859041    -8521.859038    -8521.859038  0.000467 -2.896999  0.010501
   scf:   12    -8521.859042    -8521.859041    -8521.859042  0.000214 -2.896399  0.005354
   scf:   13    -8521.859042    -8521.859042    -8521.859042  0.000019 -2.896338  0.005232
   scf:   14    -8521.859045    -8521.859044    -8521.859044  0.000092 -2.896083  0.003598
   scf:   15    -8521.859045    -8521.859045    -8521.859045  0.000178 -2.895071  0.001485
   scf:   16    -8521.859045    -8521.859045    -8521.859045  0.000013 -2.894932  0.001326
   scf:   17    -8521.859045    -8521.859045    -8521.859045  0.000021 -2.894643  0.000912

[...]

                        Begin MD step =     25

outcell: Unit cell vectors (Ang):
       20.000000    0.000000    0.000000
        0.000000   20.000000    0.000000
        0.000000    0.000000   20.000000

outcell: Cell vector modules (Ang)   :   20.000000   20.000000   20.000000
outcell: Cell angles (23,13,12) (deg):     90.0000     90.0000     90.0000
outcell: Cell volume (Ang**3)        :   8000.0000
<dSpData1D:S at geom step 25
  <sparsity:sparsity for geom step 25
    nrows_g=79 nrows=79 sparsity=.7250 nnzs=4525, refcount: 7>
  <dData1D:(new from dSpData1D) n=4525, refcount: 1>
refcount: 1>
new_DM -- step:    25
Re-using DM from previous geometries...
Number of DMs in history: 1
 DM extrapolation coefficients:
1   1.00000
New DM after history re-use:
<dSpData2D:SpM extrapolated using coords
  <sparsity:sparsity for geom step 25
    nrows_g=79 nrows=79 sparsity=.7250 nnzs=4525, refcount: 9>
  <dData2D:(temp array for extrapolation) n=4525 m=1, refcount: 1>
refcount: 1>
No. of atoms with KB's overlaping orbs in proc 0. Max # of overlaps:       9      59

InitMesh: MESH = 180 x 180 x 180 = 5832000
InitMesh: Mesh cutoff (required, used) =   200.000   223.865 Ry
New grid distribution [1]: sub = 2

        iscf     Eharris(eV)        E_KS(eV)     FreeEng(eV)     dDmax    Ef(eV) dHmax(eV)
   scf:    1    -8522.154941    -8522.217205    -8522.217212  0.041149 -2.737169  1.230334
   scf:    2    -8461.390519    -8502.352455    -8502.352455  0.447176 -2.856619 20.406108
   scf:    3    -8523.697737    -8522.265941    -8522.265948  0.422335 -2.747464  0.409723
   scf:    4    -8522.258702    -8522.262529    -8522.262536  0.002583 -2.747408  0.468675
   scf:    5    -8522.271183    -8522.267964    -8522.267971  0.005716 -2.783629  0.308545
   scf:    6    -8522.116226    -8522.230348    -8522.230356  0.036608 -2.821368  1.008848
   scf:    7    -8522.278033    -8522.257303    -8522.257310  0.010514 -2.821337  0.639913
   scf:    8    -8522.138639    -8522.242625    -8522.242631  0.039611 -2.850574  0.818351
   scf:    9    -8522.281511    -8522.272933    -8522.272940  0.018926 -2.857510  0.137636
   scf:   10    -8522.272447    -8522.273635    -8522.273642  0.005093 -2.853820  0.066223
   scf:   11    -8522.273828    -8522.273857    -8522.273864  0.001928 -2.854395  0.009207
   scf:   12    -8522.273857    -8522.273859    -8522.273866  0.000290 -2.854555  0.006942
   scf:   13    -8522.273863    -8522.273862    -8522.273869  0.000117 -2.855178  0.004777
   scf:   14    -8522.273864    -8522.273863    -8522.273870  0.000091 -2.855733  0.003610
   scf:   15    -8522.273864    -8522.273863    -8522.273870  0.000024 -2.855778  0.003387
   scf:   16    -8522.273866    -8522.273865    -8522.273872  0.000166 -2.855787  0.001391
   scf:   17    -8522.273865    -8522.273865    -8522.273872  0.000005 -2.855761  0.001239
   scf:   18    -8522.273865    -8522.273865    -8522.273872  0.000021 -2.855610  0.000933

SCF Convergence by DM+H criterion
max |DM_out - DM_in|         :     0.0000205537
max |H_out - H_in|      (eV) :     0.0009327538
SCF cycle converged after 18 iterations

Using DM_out to compute the final energy and forces
No. of atoms with KB's overlaping orbs in proc 0. Max # of overlaps:       9      59

siesta: E_KS(eV) =            -8522.2739

siesta: Atomic forces (eV/Ang):
   Tot   -0.017606    0.034703   -0.021771
   Max    3.554323
   Res    1.070792    sqrt( Sum f_i^2 / 3N )
   Max    3.554323    constrained

Stress tensor Voigt[x,y,z,yz,xz,xy] (kbar):        0.16       -0.38       -0.80        0.39        0.42       -0.44
(Free)E + p*V (eV/cell)    -8520.5604
Target enthalpy (eV/cell)    -8522.2739

siesta: Stress tensor (static) (eV/Ang**3):
         0.000133   -0.000288    0.000241
        -0.000288   -0.000185    0.000233
         0.000241    0.000233   -0.000340

siesta: Pressure (static):          0.20920723  kBar

siesta: Stress tensor (total) (eV/Ang**3):
         0.000099   -0.000274    0.000264
        -0.000274   -0.000240    0.000243
         0.000264    0.000243   -0.000502

siesta: Pressure (total):          0.34316970  kBar

siesta: Temp_ion =     977.010 K

coxmol: Writing XMOL coordinates into file simulacio1.xyz

siesta: Program's energy decomposition (eV):
siesta: Ebs     =     -1526.643097
siesta: Eions   =     11676.786863
siesta: Ena     =      1571.930859
siesta: Ekin    =      3330.147868
siesta: Enl     =       -34.104312
siesta: Eso     =         0.000000
siesta: Edftu   =         0.000000
siesta: DEna    =        53.698940
siesta: DUscf   =         7.022659
siesta: DUext   =         0.000000
siesta: Ex      =     -1666.580347
siesta: Ec      =      -107.602669
siesta: Exc     =     -1774.183016
siesta: EbV     =         0.000000
siesta: eta*DQ  =         0.000000
siesta: Emadel  =         0.000000
siesta: Emeta   =         0.000000
siesta: Emolmec =         0.000000
siesta: Ekinion =         1.010307
siesta: Eharris =     -8521.263558
siesta: Etot    =     -8521.263558
siesta: FreeEng =     -8521.263565

siesta: Final energy (eV):
siesta:  Band Struct. =   -1526.643097
siesta:       Kinetic =    3330.147868
siesta:       Hartree =   11247.674541
siesta:         Edftu =       0.000000
siesta:       Eso     =       0.000000
siesta:    Ext. field =       0.000000
siesta:         Exch. =   -1666.580347
siesta:         Corr. =    -107.602669
siesta:     Bulk bias =       0.000000
siesta:   Exch.-corr. =   -1774.183016
siesta:  Ion-electron =  -25849.271328
siesta:       Ion-ion =    4523.358071
siesta:       Ekinion =       1.010307
siesta: D3 dispersion =       0.000000
siesta:         Total =   -8521.263558
siesta:         Fermi =      -2.855610

siesta: Atomic forces (eV/Ang):
siesta:      1   -0.310295   -0.229842    0.368487
siesta:      2   -3.554323   -0.283717    1.505299
siesta:      3    0.737273   -0.553609    0.420011
siesta:      4    0.298964   -0.221919    0.208294
siesta:      5    1.967921    1.463327   -2.012188
siesta:      6    0.838048   -0.126601   -0.490114
siesta:      7    0.257390    0.501586   -0.660106
siesta:      8   -1.200135   -0.248527    0.452357
siesta:      9    0.947552   -0.265996    0.186190
siesta: ----------------------------------------
siesta:    Tot   -0.017606    0.034703   -0.021771

siesta: Stress tensor (static) (eV/Ang**3):
siesta:     0.000133   -0.000288    0.000241
siesta:    -0.000288   -0.000185    0.000233
siesta:     0.000241    0.000233   -0.000340

siesta: Cell volume =       8000.000000 Ang**3

siesta: Pressure (static):
siesta:                Solid            Molecule  Units
siesta:           0.00000142         -0.00000004  Ry/Bohr**3
siesta:           0.00013058         -0.00000405  eV/Ang**3
siesta:           0.20920723         -0.00648574  kBar
(Free)E+ p_basis*V_orbitals  =       -8520.140369
(Free)Eharris+ p_basis*V_orbitals  =       -8520.140369

siesta: Electric dipole (a.u.)  =   -1.985386   -2.080933   -0.613086
siesta: Electric dipole (Debye) =   -5.046347   -5.289204   -1.558308

cite: Please see "simulacio1.bib" for an exhaustive BiBTeX file.
cite: Please clearly indicate Siesta version in published work: 5.2.1
cite: This calculation has made use of the following articles
cite: which are encouraged to be cited in a published work.
        Primary SIESTA paper
          DOI: www.doi.org/10.1088/0953-8984/14/11/302

Routine            Calls   Time/call    Tot.time        %
siesta                 1     836.515     836.515   100.00
Setup                  1       1.176       1.176     0.14
bands                  1       0.000       0.000     0.00
KSV_init               1       0.000       0.000     0.00
IterGeom              25      33.414     835.338    99.86
geom_init             25       1.247      31.186     3.73
state_init            25       0.017       0.418     0.05
hsparse               25       0.000       0.004     0.00
overlap               25       0.016       0.406     0.05
Setup_H0              25       0.642      16.054     1.92
naefs                 50       0.000       0.003     0.00
dnaefs                50       0.000       0.001     0.00
MolMec                50       0.000       0.000     0.00
kinefsm               50       0.008       0.422     0.05
nlefsm                50       0.073       3.673     0.44
DHSCF_Init            25       0.483      12.081     1.44
DHSCF1                25       0.020       0.506     0.06
InitMesh              25       0.020       0.505     0.06
INITMESH              25       0.000       0.000     0.00
DHSCF2                25       0.463      11.574     1.38
REMESH                25       0.014       0.362     0.04
REORD               1447       0.043      62.116     7.43
PHION                 25       0.130       3.251     0.39
COMM_BSC            2219       0.028      62.804     7.51
POISON               561       0.245     137.673    16.46
fft                 1122       0.090     101.457    12.13
setup_H              511       1.543     788.500    94.26
DHSCF                536       1.508     808.209    96.62
DHSCF3               536       1.495     801.252    95.78
rhoofd               536       0.459     245.868    29.39
XC                   536       0.178      95.316    11.39
GXC-CellXC           536       0.150      80.218     9.59
gridxc@cellXC        536       0.150      80.215     9.59
vmat                 536       0.017       9.167     1.10
IterSCF              486       1.610     782.443    93.54
compute_dm           486       0.018       8.509     1.02
diagon               486       0.017       8.459     1.01
r-eigvec             486       0.011       5.504     0.66
r-buildHS            486       0.000       0.005     0.00
rdiag                486       0.011       5.493     0.66
rdiag1               486       0.001       0.645     0.08
rdiag2               486       0.002       0.765     0.09
rdiag3               486       0.008       3.958     0.47
rdiag4               486       0.000       0.100     0.01
r-buildD             486       0.006       2.833     0.34
MIXER                461       0.000       0.043     0.01
PostSCF               25       0.868      21.690     2.59
FINAL_HF              25       0.868      21.690     2.59
DHSCF4                25       0.278       6.952     0.83
dfscf                 25       0.157       3.928     0.47
overfsm               25       0.001       0.025     0.00
writeHSX              25       0.000       0.003     0.00
state_analysis        25       0.000       0.004     0.00
siesta_move           25       0.000       0.007     0.00
Analysis               1       0.000       0.000     0.00
optical                1       0.000       0.000     0.00

>> End of run:   1-JUL-2025  23:21:31
Job completed
Job completed