 NOTE: Siesta V5 introduces some new defaults for basis-set generation
 NOTE: which might lead to slightly different numerical results.
 NOTE: Please see the manual for full details and compatibility measures.

reinit: Reading from file xoc_IrO2_H2O_simulacio2.fdf

reinit: -----------------------------------------------------------------------
reinit: System Name: IrO2 + H2O collition
reinit: -----------------------------------------------------------------------
reinit: System Label: output_sim2/simulacio2
reinit: -----------------------------------------------------------------------

initatom: Reading input for the pseudopotentials and atomic orbitals ----------
Species number:   1 Atomic number:    8 Label: O
Species number:   2 Atomic number:    1 Label: H
Species number:   3 Atomic number:   77 Label: Ir

Ground state valence configuration (from tables):   2s02  2p04  3d00  4f00
Ground state valence configuration (from tables):   1s01  2p00  3d00  4f00
Ground state valence configuration (from tables):   6s02  6p00  5d07  5f00

---- Processing specs for species: O
Reading pseudopotential information in PSML from:
  O.psml
PSML file version: 1.1
GGA--PBE XC_GGA_X_PBE--XC_GGA_C_PBE pb
PSML uuid: 3cff85a0-be41-11e7-6c5c-1b1fe64d18ef

---- Processing specs for species: H
Reading pseudopotential information in PSML from:
  H.psml
PSML file version: 1.1
GGA--PBE XC_GGA_X_PBE--XC_GGA_C_PBE pb
PSML uuid: f95fa9b0-be40-11e7-634a-9594ffff953f

---- Processing specs for species: Ir
Reading pseudopotential information in PSML from:
  Ir.psml
PSML file version: 1.1
GGA--PBE XC_GGA_X_PBE--XC_GGA_C_PBE pb
PSML uuid: e3f95a80-be45-11e7-61df-5ba3fadd20b7
Semicore shell(s) with  8 electrons included in the valence for Ir

---- Pseudopotential check for O

Pseudized shells:
2s( 2.00) rc: 1.36
2p( 4.00) rc: 1.46
3d( 0.00) rc: 1.26
Valence configuration for ps generation: 2s:2p: Total charge:   6.000000

[...]

Pseudized shells:
1s( 1.00) rc: 1.01
2p( 0.00) rc: 0.71
Valence configuration for ps generation: 1s: Total charge:   1.000000

---- Pseudopotential check for Ir

Pseudized shells:
5s( 2.00) rc: 1.60
5p( 6.00) rc: 1.60
5d( 7.00) rc: 1.51
5f( 0.00) rc: 2.27
Valence configuration for ps generation: 5s:5p:5d:6s: Total charge:  17.000000
Semicore shell(s): 5s 5p
Fallback to non-perturbative polarization scheme for Ir
Please see the manual if this is not desired in principle
For O, standard SIESTA heuristics set lmxkb to 3
 (one more than the basis l, including polarization orbitals).
Use PS.lmax or PS.KBprojectors blocks to override.
For H, standard SIESTA heuristics set lmxkb to 2
 (one more than the basis l, including polarization orbitals).
Use PS.lmax or PS.KBprojectors blocks to override.
For Ir, standard SIESTA heuristics set lmxkb to 3
 (one more than the basis l, including polarization orbitals).
Use PS.lmax or PS.KBprojectors blocks to override.
O pseudopotential only contains V_ls up to l=2 -- lmxkb reset.
H pseudopotential only contains V_ls up to l=1 -- lmxkb reset.

<basis_specs>
O                    Z=   8    Mass=  15.999        Charge= 0.17977+309
Lmxo=2 Lmxkb= 2    BasisType=split      Semic=F
L=0  Nsemic=0  Cnfigmx=2
          i=1  nzeta=1  polorb=0  (2s)
            splnorm:   0.15000
               vcte:    40.000
               rinn:  -0.90000
               qcoe:    0.0000
               qyuk:    0.0000
               qwid:   0.10000E-01
                rcs:    0.0000
            lambdas:    1.0000
L=1  Nsemic=0  Cnfigmx=2
          i=1  nzeta=1  polorb=1  (2p)  (to be polarized perturbatively)
            splnorm:   0.15000
               vcte:    40.000
               rinn:  -0.90000
               qcoe:    0.0000
               qyuk:    0.0000
               qwid:   0.10000E-01
                rcs:    0.0000
            lambdas:    1.0000
L=2  Nsemic=0  Cnfigmx=3
          i=1  nzeta=0  polorb=0  (3d)  (perturbative polarization orbital) (from 2p)
L=0  Nkbl=1  erefs: 0.17977+309
L=1  Nkbl=1  erefs: 0.17977+309
L=2  Nkbl=1  erefs: 0.17977+309
</basis_specs>

Using PAO.SplitTailNorm
atom: Called for O                     (Z =   8)
Maximum radius (at nrval) set to   50.00000 8518

read_vps: Pseudopotential generation method:
read_vps: ONCVPSP-3.Hamann's oncvpsp
Valence charge in pseudo generation:    6.00000

read_vps: Pseudopotential includes a core correction:
read_vps: Pseudo-core for xc-correction

xc_check: Exchange-correlation functional:
xc_check: GGA Perdew, Burke & Ernzerhof 1996
Got Vlocal (oncv-fit) from psml data
Choosing vlocal chloc cutoff:  6.020499
qtot up to nchloc:    6.00001015
atom: Maximum radius for chlocal:    6.02050
atom: Maximum radius for r*vlocal+2*Zval:    6.02050
Reading KB projs from O psml data
Using scalar-relativistic projectors in PSML file

PSML: Kleinman-Bylander projectors:
   l= 0   rc=  1.372412   Ekb= 12.113471
   l= 0   rc=  1.372412   Ekb=  1.648048
   l= 1   rc=  1.474132   Ekb= -9.434259
   l= 1   rc=  1.474132   Ekb= -2.298541
   l= 2   rc=  1.277664   Ekb= -2.663910

PSML: Total number of  Kleinman-Bylander projectors:  13
atom: -------------------------------------------------------------------------

atom: SANKEY-TYPE ORBITALS:

SPLIT: Orbitals with angular momentum L= 0

SPLIT: Basis orbitals for state 2s

SPLIT: PAO cut-off radius determined from an
SPLIT: energy shift=  0.010000 Ry
Split based on tail norm

   izeta = 1
                 lambda =    1.000000
                     rc =    3.532490
                 energy =   -1.750073
                kinetic =    1.592274
    potential(screened) =   -3.342346
       potential(ionic) =  -11.245343

[...]

SPLIT: Basis orbitals for state 2p

[...]

POLgen: Perturbative polarization orbital with L=  2

POLgen: Polarization orbital for state 2p
Split based on tail norm

   izeta = 1
                     rc =    4.299534
                 energy =    2.238408
                kinetic =    4.166258
    potential(screened) =   -1.927850
       potential(ionic) =   -8.042214
atom: Total number of Sankey-type orbitals:  9

atm_pop: Valence configuration (for local Pseudopot. screening):
 2s( 2.00)
 2p( 4.00)
 3d( 0.00)
Vna: chval, zval:    6.00000   6.00000

Vna:  Cut-off radius for the neutral-atom potential:   4.299534
comcore: Pseudo-core radius Rcore=  1.354557

atom: _________________________________________________________________________

<basis_specs>
H                    Z=   1    Mass=  1.0080        Charge= 0.17977+309
Lmxo=1 Lmxkb= 1    BasisType=split      Semic=F
L=0  Nsemic=0  Cnfigmx=1
          i=1  nzeta=1  polorb=1  (1s)  (to be polarized perturbatively)
            splnorm:   0.15000
               vcte:    40.000
               rinn:  -0.90000
               qcoe:    0.0000
               qyuk:    0.0000
               qwid:   0.10000E-01
                rcs:    0.0000
            lambdas:    1.0000
L=1  Nsemic=0  Cnfigmx=2
          i=1  nzeta=0  polorb=0  (2p)  (perturbative polarization orbital) (from 1s)
L=0  Nkbl=1  erefs: 0.17977+309
L=1  Nkbl=1  erefs: 0.17977+309
</basis_specs>

[...]

PSML: Kleinman-Bylander projectors:
   l= 0   rc=  1.022342   Ekb= -3.402247
   l= 0   rc=  1.022342   Ekb= -1.068968
   l= 1   rc=  0.714575   Ekb= -1.006642

[...]

POLgen: Perturbative polarization orbital with L=  1

POLgen: Polarization orbital for state 1s
Split based on tail norm

   izeta = 1
                     rc =    5.232664
                 energy =    0.682216
                kinetic =    1.337348
    potential(screened) =   -0.655132
       potential(ionic) =   -1.143559
atom: Total number of Sankey-type orbitals:  4

atm_pop: Valence configuration (for local Pseudopot. screening):
 1s( 1.00)
 2p( 0.00)
Vna: chval, zval:    1.00000   1.00000

Vna:  Cut-off radius for the neutral-atom potential:   5.232664

[...]

<basis_specs>
Ir                   Z=  77    Mass=  192.22        Charge= 0.17977+309
Lmxo=2 Lmxkb= 3    BasisType=split      Semic=T
L=0  Nsemic=1  Cnfigmx=6
          i=1  nzeta=1  polorb=0  (5s)  (semicore shell)
            splnorm:   0.15000
               vcte:    40.000
               rinn:  -0.90000
               qcoe:    0.0000
               qyuk:    0.0000
               qwid:   0.10000E-01
                rcs:    0.0000
            lambdas:    1.0000
          i=2  nzeta=1  polorb=0  (6s)  (to be polarized non-perturbatively)
            splnorm:   0.15000
               vcte:    40.000
               rinn:  -0.90000
               qcoe:    0.0000
               qyuk:    0.0000
               qwid:   0.10000E-01
                rcs:    0.0000
            lambdas:    1.0000
L=1  Nsemic=1  Cnfigmx=6
          i=1  nzeta=1  polorb=0  (5p)  (semicore shell)
            splnorm:   0.15000
               vcte:    40.000
               rinn:  -0.90000
               qcoe:    0.0000
               qyuk:    0.0000
               qwid:   0.10000E-01
                rcs:    0.0000
            lambdas:    1.0000
          i=2  nzeta=1  polorb=0  (6p)  (non-perturbative polarization shell)
            splnorm:   0.15000
               vcte:    40.000
               rinn:  -0.90000
               qcoe:   0.19310-311
               qyuk:   0.19763-322
               qwid:   0.21220-312
                rcs:    0.0000
            lambdas:    1.0000
L=2  Nsemic=0  Cnfigmx=5
          i=1  nzeta=1  polorb=0  (5d)
            splnorm:   0.15000
               vcte:    40.000
               rinn:  -0.90000
               qcoe:    0.0000
               qyuk:    0.0000
               qwid:   0.10000E-01
                rcs:    0.0000
            lambdas:    1.0000
L=0  Nkbl=2  erefs: 0.17977+309 0.17977+309
L=1  Nkbl=2  erefs: 0.17977+309 0.17977+309
L=2  Nkbl=1  erefs: 0.17977+309
L=3  Nkbl=1  erefs: 0.17977+309
</basis_specs>

Using PAO.SplitTailNorm
atom: Called for Ir                    (Z =  77)
Maximum radius (at nrval) set to   50.00000 8518

read_vps: Pseudopotential generation method:
read_vps: ONCVPSP-3.Hamann's oncvpsp
Valence charge in pseudo generation:   17.00000

read_vps: Pseudopotential includes a core correction:
read_vps: Pseudo-core for xc-correction

xc_check: Exchange-correlation functional:
xc_check: GGA Perdew, Burke & Ernzerhof 1996
Got Vlocal (oncv-fit) from psml data
Choosing vlocal chloc cutoff:  5.047285
qtot up to nchloc:   16.99999563
atom: Maximum radius for chlocal:    5.04729
atom: Maximum radius for r*vlocal+2*Zval:    5.04729
Reading KB projs from Ir psml data
Using scalar-relativistic projectors in PSML file

PSML: Kleinman-Bylander projectors:
   l= 0   rc=  1.623671   Ekb=179.823246
   l= 0   rc=  1.625306   Ekb=  5.611620
   l= 1   rc=  1.623671   Ekb= 14.834396
   l= 1   rc=  1.625306   Ekb=  2.223076
   l= 2   rc=  1.530073   Ekb=  4.077077
   l= 2   rc=  1.530073   Ekb=  0.309986
   l= 3   rc=  2.296727   Ekb=  2.269623
   l= 3   rc=  2.296727   Ekb=  0.752356

PSML: Total number of  Kleinman-Bylander projectors:  32
atom: -------------------------------------------------------------------------

atom: SANKEY-TYPE ORBITALS:

[...]

SPLIT: Basis orbitals for state 6s

[...]

SPLIT: Basis orbitals for state 5p

[...]

SPLIT: Basis orbitals for state 6p
SPLIT: Non-perturbative polarization orbs for state 6s
[...]
siesta: Emeta   =         0.000000
siesta: Emolmec =         0.000000
siesta: Ekinion =         0.000000
siesta: Eharris =     -8336.744266
siesta: Etot    =     -8450.813748
siesta: FreeEng =     -8450.813748

SCF Convergence by DM+H criterion
max |DM_out - DM_in|         :     0.0000684227
max |H_out - H_in|      (eV) :     0.0007384809
SCF cycle converged after 42 iterations

Using DM_out to compute the final energy and forces
No. of atoms with KB's overlaping orbs in proc 0. Max # of overlaps:       9      59

siesta: E_KS(eV) =            -8521.9513

siesta: E_KS - E_eggbox =     -8521.9513

siesta: Atomic forces (eV/Ang):
   Tot   -0.005460   -0.020169    0.009779
   Max    2.826962
   Res    1.292034    sqrt( Sum f_i^2 / 3N )
   Max    2.826962    constrained

Stress tensor Voigt[x,y,z,yz,xz,xy] (kbar):        0.65        0.76        0.16       -0.38       -0.35       -0.17
(Free)E + p*V (eV/cell)    -8524.5694
Target enthalpy (eV/cell)    -8521.9513

siesta: Stress tensor (static) (eV/Ang**3):
         0.000418   -0.000114   -0.000225
        -0.000114    0.000502   -0.000227
        -0.000225   -0.000227    0.000139

siesta: Pressure (static):         -0.56575585  kBar

siesta: Stress tensor (total) (eV/Ang**3):
         0.000406   -0.000103   -0.000220
        -0.000103    0.000476   -0.000239
        -0.000220   -0.000239    0.000100

siesta: Pressure (total):         -0.52433638  kBar

siesta: Temp_ion =     300.274 K

[...]

outcell: Cell vector modules (Ang)   :   20.000000   20.000000   20.000000
outcell: Cell angles (23,13,12) (deg):     90.0000     90.0000     90.0000
outcell: Cell volume (Ang**3)        :   8000.0000
<dSpData1D:S at geom step 2
  <sparsity:sparsity for geom step 2
    nrows_g=79 nrows=79 sparsity=.6789 nnzs=4237, refcount: 7>
  <dData1D:(new from dSpData1D) n=4237, refcount: 1>
refcount: 1>
new_DM -- step:     2
Re-using DM from previous geometries...
Number of DMs in history: 1
 DM extrapolation coefficients:
1   1.00000
New DM after history re-use:
<dSpData2D:SpM extrapolated using coords
  <sparsity:sparsity for geom step 2
    nrows_g=79 nrows=79 sparsity=.6789 nnzs=4237, refcount: 9>
  <dData2D:(temp array for extrapolation) n=4237 m=1, refcount: 1>
refcount: 1>
No. of atoms with KB's overlaping orbs in proc 0. Max # of overlaps:       9      59

[...]

        iscf     Eharris(eV)        E_KS(eV)     FreeEng(eV)     dDmax    Ef(eV) dHmax(eV)
   scf:    1    -8521.863226    -8521.912034    -8521.912034  0.011098 -2.917223  0.265456
   scf:    2    -8519.818615    -8521.232035    -8521.232038  0.095333 -2.874044  3.642924
   scf:    3    -8521.952274    -8521.915888    -8521.915888  0.090239 -2.914746  0.078574
   scf:    4    -8521.916280    -8521.916162    -8521.916162  0.001581 -2.913826  0.033715
   scf:    5    -8521.916264    -8521.916220    -8521.916220  0.000474 -2.913058  0.039924
   scf:    6    -8521.916445    -8521.916358    -8521.916358  0.000830 -2.909450  0.030570
   scf:    7    -8521.916436    -8521.916420    -8521.916420  0.001344 -2.902745  0.023074
   scf:    8    -8521.916424    -8521.916422    -8521.916422  0.000033 -2.902473  0.021682
   scf:    9    -8521.916426    -8521.916430    -8521.916431  0.000323 -2.900493  0.013639
   scf:   10    -8521.916432    -8521.916432    -8521.916432  0.000103 -2.899517  0.012168
   scf:   11    -8521.916435    -8521.916434    -8521.916434  0.000100 -2.898543  0.010831
   scf:   12    -8521.916436    -8521.916436    -8521.916436  0.000239 -2.896792  0.003082
   scf:   13    -8521.916436    -8521.916436    -8521.916437  0.000022 -2.896694  0.002099
   scf:   14    -8521.916437    -8521.916436    -8521.916437  0.000041 -2.896721  0.001569
   scf:   15    -8521.916437    -8521.916437    -8521.916437  0.000070 -2.896598  0.000879

[...]

        iscf     Eharris(eV)        E_KS(eV)     FreeEng(eV)     dDmax    Ef(eV) dHmax(eV)
   scf:    1    -8522.257757    -8522.270831    -8522.270835  0.043731 -2.691435  1.312848
   scf:    2    -8455.624954    -8500.537248    -8500.537248  0.481807 -2.780390 21.307354
   scf:    3    -8524.050450    -8522.328238    -8522.328241  0.453386 -2.702464  0.411286
   scf:    4    -8522.328344    -8522.328291    -8522.328294  0.000037 -2.702463  0.410434
   scf:    5    -8522.343123    -8522.337944    -8522.337947  0.007548 -2.738128  0.182998
   scf:    6    -8522.245942    -8522.311779    -8522.311783  0.025356 -2.750749  0.836619
mix: Pulay -- inversion failed, > SVD [rank/size] 4 / 5
   scf:    7    -8522.335611    -8522.339255    -8522.339258  0.023104 -2.757626  0.102062
   scf:    8    -8522.305855    -8522.327192    -8522.327196  0.012800 -2.787889  0.517453
   scf:    9    -8522.342205    -8522.339244    -8522.339248  0.012010 -2.794414  0.080164
   scf:   10    -8522.339227    -8522.339503    -8522.339506  0.002406 -2.792758  0.030757
   scf:   11    -8522.339515    -8522.339547    -8522.339551  0.001051 -2.793180  0.012265
   scf:   12    -8522.339553    -8522.339552    -8522.339555  0.000233 -2.793061  0.005613
   scf:   13    -8522.339555    -8522.339554    -8522.339557  0.000129 -2.793056  0.004202
   scf:   14    -8522.339556    -8522.339555    -8522.339558  0.000070 -2.794003  0.003143
   scf:   15    -8522.339556    -8522.339556    -8522.339559  0.000031 -2.794363  0.002844
   scf:   16    -8522.339557    -8522.339557    -8522.339560  0.000094 -2.794567  0.001786
   scf:   17    -8522.339557    -8522.339557    -8522.339560  0.000020 -2.794531  0.001581
   scf:   18    -8522.339557    -8522.339557    -8522.339560  0.000026 -2.794479  0.001430
   scf:   19    -8522.339557    -8522.339557    -8522.339560  0.000047 -2.794374  0.000867

[...]

                        Begin MD step =     25

outcell: Unit cell vectors (Ang):
       20.000000    0.000000    0.000000
        0.000000   20.000000    0.000000
        0.000000    0.000000   20.000000

outcell: Cell vector modules (Ang)   :   20.000000   20.000000   20.000000
outcell: Cell angles (23,13,12) (deg):     90.0000     90.0000     90.0000
outcell: Cell volume (Ang**3)        :   8000.0000
<dSpData1D:S at geom step 25
  <sparsity:sparsity for geom step 25
    nrows_g=79 nrows=79 sparsity=.7250 nnzs=4525, refcount: 7>
  <dData1D:(new from dSpData1D) n=4525, refcount: 1>
refcount: 1>
new_DM -- step:    25
Re-using DM from previous geometries...
Number of DMs in history: 1
 DM extrapolation coefficients:
1   1.00000
New DM after history re-use:
<dSpData2D:SpM extrapolated using coords
  <sparsity:sparsity for geom step 25
    nrows_g=79 nrows=79 sparsity=.7250 nnzs=4525, refcount: 9>
  <dData2D:(temp array for extrapolation) n=4525 m=1, refcount: 1>
refcount: 1>
No. of atoms with KB's overlaping orbs in proc 0. Max # of overlaps:       9      59

InitMesh: MESH = 180 x 180 x 180 = 5832000
InitMesh: Mesh cutoff (required, used) =   200.000   223.865 Ry
New grid distribution [1]: sub = 2

        iscf     Eharris(eV)        E_KS(eV)     FreeEng(eV)     dDmax    Ef(eV) dHmax(eV)
   scf:    1    -8522.061153    -8522.212073    -8522.212081  0.050759 -2.694119  1.642219
   scf:    2    -8438.276336    -8494.934695    -8494.934695  0.530873 -2.864095 23.935322
   scf:    3    -8525.031809    -8522.285818    -8522.285824  0.491562 -2.709923  0.673804
   scf:    4    -8522.267079    -8522.276780    -8522.276786  0.003227 -2.710134  0.748032
   scf:    5    -8522.324538    -8522.308753    -8522.308760  0.014644 -2.764657  0.278574
   scf:    6    -8521.150253    -8521.946846    -8521.946856  0.087016 -2.781554  2.875104
   scf:    7    -8521.134254    -8522.094954    -8522.094960  0.137750 -2.800811  2.109496
   scf:    8    -8522.159836    -8522.128402    -8522.128407  0.003721 -2.817723  1.988750
   scf:    9    -8522.344700    -8522.312041    -8522.312047  0.048466 -2.837006  0.197718
   scf:   10    -8522.301592    -8522.311002    -8522.311009  0.011865 -2.825818  0.249599
   scf:   11    -8522.313903    -8522.313884    -8522.313891  0.007090 -2.830327  0.016950
   scf:   12    -8522.313873    -8522.313886    -8522.313893  0.000449 -2.828361  0.012187
   scf:   13    -8522.313843    -8522.313883    -8522.313889  0.000800 -2.827516  0.017694
   scf:   14    -8522.313897    -8522.313897    -8522.313903  0.000482 -2.827326  0.007975
   scf:   15    -8522.313897    -8522.313897    -8522.313904  0.000060 -2.827942  0.007148
   scf:   16    -8522.313904    -8522.313901    -8522.313908  0.000155 -2.829906  0.006335
   scf:   17    -8522.313903    -8522.313902    -8522.313908  0.000033 -2.830106  0.005645
   scf:   18    -8522.313907    -8522.313905    -8522.313912  0.000222 -2.831107  0.001395
   scf:   19    -8522.313905    -8522.313905    -8522.313912  0.000012 -2.831223  0.001568
   scf:   20    -8522.313905    -8522.313905    -8522.313912  0.000007 -2.831257  0.001597
   scf:   21    -8522.313906    -8522.313905    -8522.313912  0.000085 -2.831188  0.001080
   scf:   22    -8522.313906    -8522.313905    -8522.313912  0.000011 -2.831084  0.000835

SCF Convergence by DM+H criterion
max |DM_out - DM_in|         :     0.0000114974
max |H_out - H_in|      (eV) :     0.0008353987
SCF cycle converged after 22 iterations

Using DM_out to compute the final energy and forces
No. of atoms with KB's overlaping orbs in proc 0. Max # of overlaps:       9      59

siesta: E_KS(eV) =            -8522.3139

siesta: Atomic forces (eV/Ang):
   Tot   -0.026162    0.043776   -0.042947
   Max    3.251715
   Res    1.055823    sqrt( Sum f_i^2 / 3N )
   Max    3.251715    constrained

Stress tensor Voigt[x,y,z,yz,xz,xy] (kbar):        0.27       -0.27       -0.83        0.38        0.44       -0.28
(Free)E + p*V (eV/cell)    -8520.9412
Target enthalpy (eV/cell)    -8522.3139

siesta: Stress tensor (static) (eV/Ang**3):
         0.000209   -0.000188    0.000232
        -0.000188   -0.000113    0.000207
         0.000232    0.000207   -0.000281

siesta: Pressure (static):          0.09908587  kBar

siesta: Stress tensor (total) (eV/Ang**3):
         0.000168   -0.000173    0.000272
        -0.000173   -0.000167    0.000239
         0.000272    0.000239   -0.000515

siesta: Pressure (total):          0.27492341  kBar

siesta: Temp_ion =    1340.387 K

coxmol: Writing XMOL coordinates into file output_sim2/simulacio2.xyz

siesta: Program's energy decomposition (eV):
siesta: Ebs     =     -1524.802852
siesta: Eions   =     11676.786863
siesta: Ena     =      1572.036624
siesta: Ekin    =      3328.946874
siesta: Enl     =       -33.618216
siesta: Eso     =         0.000000
siesta: Edftu   =         0.000000
siesta: DEna    =        53.949435
siesta: DUscf   =         7.039459
siesta: DUext   =         0.000000
siesta: Ex      =     -1666.298938
siesta: Ec      =      -107.582280
siesta: Exc     =     -1773.881218
siesta: EbV     =         0.000000
siesta: eta*DQ  =         0.000000
siesta: Emadel  =         0.000000
siesta: Emeta   =         0.000000
siesta: Emolmec =         0.000000
siesta: Ekinion =         1.386067
siesta: Eharris =     -8520.927839
siesta: Etot    =     -8520.927839
siesta: FreeEng =     -8520.927845

siesta: Final energy (eV):
siesta:  Band Struct. =   -1524.802852
siesta:       Kinetic =    3328.946874
siesta:       Hartree =   11250.407622
siesta:         Edftu =       0.000000
siesta:       Eso     =       0.000000
siesta:    Ext. field =       0.000000
siesta:         Exch. =   -1666.298938
siesta:         Corr. =    -107.582280
siesta:     Bulk bias =       0.000000
siesta:   Exch.-corr. =   -1773.881218
siesta:  Ion-electron =  -25852.093193
siesta:       Ion-ion =    4524.306010
siesta:       Ekinion =       1.386067
siesta: D3 dispersion =       0.000000
siesta:         Total =   -8520.927839
siesta:         Fermi =      -2.831084

siesta: Atomic forces (eV/Ang):
siesta:      1   -0.099226    0.013536    0.250650
siesta:      2   -3.251715   -0.690183    1.115974
siesta:      3    0.463515   -0.345947    0.378300
siesta:      4    0.354305   -0.296004    0.277548
siesta:      5    1.850673    1.477375   -1.855298
siesta:      6    0.646182   -0.124488   -0.191323
siesta:      7    0.235008    1.058680   -0.938966
siesta:      8   -1.587806   -0.499329    0.586048
siesta:      9    1.362900   -0.549864    0.334121
siesta: ----------------------------------------
siesta:    Tot   -0.026162    0.043776   -0.042947

siesta: Stress tensor (static) (eV/Ang**3):
siesta:     0.000209   -0.000188    0.000232
siesta:    -0.000188   -0.000113    0.000207
siesta:     0.000232    0.000207   -0.000281

siesta: Cell volume =       8000.000000 Ang**3

siesta: Pressure (static):
siesta:                Solid            Molecule  Units
siesta:           0.00000067         -0.00000008  Ry/Bohr**3
siesta:           0.00006184         -0.00000747  eV/Ang**3
siesta:           0.09908587         -0.01197326  kBar
(Free)E+ p_basis*V_orbitals  =       -8520.180409
(Free)Eharris+ p_basis*V_orbitals  =       -8520.180409

siesta: Electric dipole (a.u.)  =   -2.012657   -1.973601   -0.535798
siesta: Electric dipole (Debye) =   -5.115664   -5.016394   -1.361863

cite: Please see "output_sim2/simulacio2.bib" for an exhaustive BiBTeX file.
cite: Please clearly indicate Siesta version in published work: 5.2.1
cite: This calculation has made use of the following articles
cite: which are encouraged to be cited in a published work.
        Primary SIESTA paper
          DOI: www.doi.org/10.1088/0953-8984/14/11/302

Routine            Calls   Time/call    Tot.time        %
siesta                 1     820.719     820.719   100.00
Setup                  1       1.176       1.176     0.14
bands                  1       0.000       0.000     0.00
KSV_init               1       0.000       0.000     0.00
IterGeom              25      32.782     819.541    99.86
geom_init             25       1.246      31.156     3.80
state_init            25       0.017       0.420     0.05
hsparse               25       0.000       0.004     0.00
overlap               25       0.016       0.408     0.05
Setup_H0              25       0.641      16.033     1.95
naefs                 50       0.000       0.003     0.00
dnaefs                50       0.000       0.001     0.00
MolMec                50       0.000       0.000     0.00
kinefsm               50       0.009       0.429     0.05
nlefsm                50       0.073       3.657     0.45
DHSCF_Init            25       0.483      12.069     1.47
DHSCF1                25       0.020       0.504     0.06
InitMesh              25       0.020       0.503     0.06
INITMESH              25       0.000       0.000     0.00
DHSCF2                25       0.463      11.565     1.41
REMESH                25       0.013       0.332     0.04
REORD               1427       0.043      60.913     7.42
PHION                 25       0.130       3.256     0.40
COMM_BSC            2179       0.028      61.511     7.49
POISON               551       0.245     135.229    16.48
fft                 1102       0.090      99.476    12.12
setup_H              501       1.543     772.834    94.17
DHSCF                526       1.507     792.749    96.59
DHSCF3               526       1.494     785.743    95.74
rhoofd               526       0.459     241.609    29.44
XC                   526       0.177      93.070    11.34
GXC-CellXC           526       0.149      78.163     9.52
gridxc@cellXC        526       0.149      78.160     9.52
vmat                 526       0.017       9.000     1.10
IterSCF              476       1.610     766.514    93.40
compute_dm           476       0.017       8.241     1.00
diagon               476       0.017       8.191     1.00
r-eigvec             476       0.011       5.286     0.64
r-buildHS            476       0.000       0.005     0.00
rdiag                476       0.011       5.275     0.64
rdiag1               476       0.001       0.638     0.08
rdiag2               476       0.002       0.742     0.09
rdiag3               476       0.008       3.774     0.46
rdiag4               476       0.000       0.098     0.01
r-buildD             476       0.006       2.786     0.34
MIXER                451       0.000       0.042     0.01
PostSCF               25       0.874      21.854     2.66
FINAL_HF              25       0.874      21.854     2.66
DHSCF4                25       0.280       7.001     0.85
dfscf                 25       0.158       3.952     0.48
overfsm               25       0.001       0.025     0.00
writeHSX              25       0.000       0.003     0.00
state_analysis        25       0.000       0.004     0.00
siesta_move           25       0.000       0.006     0.00
Analysis               1       0.000       0.000     0.00
optical                1       0.000       0.000     0.00

>> End of run:   1-JUL-2025  23:46:31
Job completed
Job completed