 NOTE: Siesta V5 introduces some new defaults for basis-set generation
 NOTE: which might lead to slightly different numerical results.
 NOTE: Please see the manual for full details and compatibility measures.

reinit: Reading from file xoc_IrO2_H2O_simulacio3.fdf

reinit: -----------------------------------------------------------------------
reinit: System Name: IrO2 + H2O collition
reinit: -----------------------------------------------------------------------
reinit: System Label: output_sim3/simulacio3
reinit: -----------------------------------------------------------------------

initatom: Reading input for the pseudopotentials and atomic orbitals ----------
Species number:   1 Atomic number:    8 Label: O
Species number:   2 Atomic number:    1 Label: H
Species number:   3 Atomic number:   77 Label: Ir

Ground state valence configuration (from tables):   2s02  2p04  3d00  4f00
Ground state valence configuration (from tables):   1s01  2p00  3d00  4f00
Ground state valence configuration (from tables):   6s02  6p00  5d07  5f00

---- Processing specs for species: O
Reading pseudopotential information in PSML from:
  O.psml
PSML file version: 1.1
GGA--PBE XC_GGA_X_PBE--XC_GGA_C_PBE pb
PSML uuid: 3cff85a0-be41-11e7-6c5c-1b1fe64d18ef

---- Processing specs for species: H
Reading pseudopotential information in PSML from:
  H.psml
PSML file version: 1.1
GGA--PBE XC_GGA_X_PBE--XC_GGA_C_PBE pb
PSML uuid: f95fa9b0-be40-11e7-634a-9594ffff953f

---- Processing specs for species: Ir
Reading pseudopotential information in PSML from:
  Ir.psml
PSML file version: 1.1
GGA--PBE XC_GGA_X_PBE--XC_GGA_C_PBE pb
PSML uuid: e3f95a80-be45-11e7-61df-5ba3fadd20b7
Semicore shell(s) with  8 electrons included in the valence for Ir

---- Pseudopotential check for O

Pseudized shells:
2s( 2.00) rc: 1.36
2p( 4.00) rc: 1.46
3d( 0.00) rc: 1.26
Valence configuration for ps generation: 2s:2p: Total charge:   6.000000

[...]

Pseudized shells:
1s( 1.00) rc: 1.01
2p( 0.00) rc: 0.71
Valence configuration for ps generation: 1s: Total charge:   1.000000

---- Pseudopotential check for Ir

Pseudized shells:
5s( 2.00) rc: 1.60
5p( 6.00) rc: 1.60
5d( 7.00) rc: 1.51
5f( 0.00) rc: 2.27
Valence configuration for ps generation: 5s:5p:5d:6s: Total charge:  17.000000
Semicore shell(s): 5s 5p
Fallback to non-perturbative polarization scheme for Ir
Please see the manual if this is not desired in principle
For O, standard SIESTA heuristics set lmxkb to 3
 (one more than the basis l, including polarization orbitals).
Use PS.lmax or PS.KBprojectors blocks to override.
For H, standard SIESTA heuristics set lmxkb to 2
 (one more than the basis l, including polarization orbitals).
Use PS.lmax or PS.KBprojectors blocks to override.
For Ir, standard SIESTA heuristics set lmxkb to 3
 (one more than the basis l, including polarization orbitals).
Use PS.lmax or PS.KBprojectors blocks to override.
O pseudopotential only contains V_ls up to l=2 -- lmxkb reset.
H pseudopotential only contains V_ls up to l=1 -- lmxkb reset.

<basis_specs>
O                    Z=   8    Mass=  15.999        Charge= 0.17977+309
Lmxo=2 Lmxkb= 2    BasisType=split      Semic=F
L=0  Nsemic=0  Cnfigmx=2
          i=1  nzeta=1  polorb=0  (2s)
            splnorm:   0.15000
               vcte:    40.000
               rinn:  -0.90000
               qcoe:    0.0000
               qyuk:    0.0000
               qwid:   0.10000E-01
                rcs:    0.0000
            lambdas:    1.0000
L=1  Nsemic=0  Cnfigmx=2
          i=1  nzeta=1  polorb=1  (2p)  (to be polarized perturbatively)
            splnorm:   0.15000
               vcte:    40.000
               rinn:  -0.90000
               qcoe:    0.0000
               qyuk:    0.0000
               qwid:   0.10000E-01
                rcs:    0.0000
            lambdas:    1.0000
L=2  Nsemic=0  Cnfigmx=3
          i=1  nzeta=0  polorb=0  (3d)  (perturbative polarization orbital) (from 2p)
L=0  Nkbl=1  erefs: 0.17977+309
L=1  Nkbl=1  erefs: 0.17977+309
L=2  Nkbl=1  erefs: 0.17977+309
</basis_specs>

Using PAO.SplitTailNorm
atom: Called for O                     (Z =   8)
Maximum radius (at nrval) set to   50.00000 8518

read_vps: Pseudopotential generation method:
read_vps: ONCVPSP-3.Hamann's oncvpsp
Valence charge in pseudo generation:    6.00000

read_vps: Pseudopotential includes a core correction:
read_vps: Pseudo-core for xc-correction

xc_check: Exchange-correlation functional:
xc_check: GGA Perdew, Burke & Ernzerhof 1996
Got Vlocal (oncv-fit) from psml data
Choosing vlocal chloc cutoff:  6.020499
qtot up to nchloc:    6.00001015
atom: Maximum radius for chlocal:    6.02050
atom: Maximum radius for r*vlocal+2*Zval:    6.02050
Reading KB projs from O psml data
Using scalar-relativistic projectors in PSML file

PSML: Kleinman-Bylander projectors:
   l= 0   rc=  1.372412   Ekb= 12.113471
   l= 0   rc=  1.372412   Ekb=  1.648048
   l= 1   rc=  1.474132   Ekb= -9.434259
   l= 1   rc=  1.474132   Ekb= -2.298541
   l= 2   rc=  1.277664   Ekb= -2.663910

PSML: Total number of  Kleinman-Bylander projectors:  13
atom: -------------------------------------------------------------------------

atom: SANKEY-TYPE ORBITALS:

SPLIT: Orbitals with angular momentum L= 0

SPLIT: Basis orbitals for state 2s

SPLIT: PAO cut-off radius determined from an
SPLIT: energy shift=  0.010000 Ry
Split based on tail norm

   izeta = 1
                 lambda =    1.000000
                     rc =    3.532490
                 energy =   -1.750073
                kinetic =    1.592274
    potential(screened) =   -3.342346
       potential(ionic) =  -11.245343

[...]

SPLIT: Basis orbitals for state 2p

[...]

POLgen: Perturbative polarization orbital with L=  2

POLgen: Polarization orbital for state 2p
Split based on tail norm

   izeta = 1
                     rc =    4.299534
                 energy =    2.238408
                kinetic =    4.166258
    potential(screened) =   -1.927850
       potential(ionic) =   -8.042214
atom: Total number of Sankey-type orbitals:  9

atm_pop: Valence configuration (for local Pseudopot. screening):
 2s( 2.00)
 2p( 4.00)
 3d( 0.00)
Vna: chval, zval:    6.00000   6.00000

Vna:  Cut-off radius for the neutral-atom potential:   4.299534
comcore: Pseudo-core radius Rcore=  1.354557

atom: _________________________________________________________________________

<basis_specs>
H                    Z=   1    Mass=  1.0080        Charge= 0.17977+309
Lmxo=1 Lmxkb= 1    BasisType=split      Semic=F
L=0  Nsemic=0  Cnfigmx=1
          i=1  nzeta=1  polorb=1  (1s)  (to be polarized perturbatively)
            splnorm:   0.15000
               vcte:    40.000
               rinn:  -0.90000
               qcoe:    0.0000
               qyuk:    0.0000
               qwid:   0.10000E-01
                rcs:    0.0000
            lambdas:    1.0000
L=1  Nsemic=0  Cnfigmx=2
          i=1  nzeta=0  polorb=0  (2p)  (perturbative polarization orbital) (from 1s)
L=0  Nkbl=1  erefs: 0.17977+309
L=1  Nkbl=1  erefs: 0.17977+309
</basis_specs>

[...]

PSML: Kleinman-Bylander projectors:
   l= 0   rc=  1.022342   Ekb= -3.402247
   l= 0   rc=  1.022342   Ekb= -1.068968
   l= 1   rc=  0.714575   Ekb= -1.006642

[...]

POLgen: Perturbative polarization orbital with L=  1

POLgen: Polarization orbital for state 1s
Split based on tail norm

   izeta = 1
                     rc =    5.232664
                 energy =    0.682216
                kinetic =    1.337348
    potential(screened) =   -0.655132
       potential(ionic) =   -1.143559
atom: Total number of Sankey-type orbitals:  4

atm_pop: Valence configuration (for local Pseudopot. screening):
 1s( 1.00)
 2p( 0.00)
Vna: chval, zval:    1.00000   1.00000

Vna:  Cut-off radius for the neutral-atom potential:   5.232664

[...]

<basis_specs>
Ir                   Z=  77    Mass=  192.22        Charge= 0.17977+309
Lmxo=2 Lmxkb= 3    BasisType=split      Semic=T
L=0  Nsemic=1  Cnfigmx=6
          i=1  nzeta=1  polorb=0  (5s)  (semicore shell)
            splnorm:   0.15000
               vcte:    40.000
               rinn:  -0.90000
               qcoe:    0.0000
               qyuk:    0.0000
               qwid:   0.10000E-01
                rcs:    0.0000
            lambdas:    1.0000
          i=2  nzeta=1  polorb=0  (6s)  (to be polarized non-perturbatively)
            splnorm:   0.15000
               vcte:    40.000
               rinn:  -0.90000
               qcoe:    0.0000
               qyuk:    0.0000
               qwid:   0.10000E-01
                rcs:    0.0000
            lambdas:    1.0000
L=1  Nsemic=1  Cnfigmx=6
          i=1  nzeta=1  polorb=0  (5p)  (semicore shell)
            splnorm:   0.15000
               vcte:    40.000
               rinn:  -0.90000
               qcoe:    0.0000
               qyuk:    0.0000
               qwid:   0.10000E-01
                rcs:    0.0000
            lambdas:    1.0000
          i=2  nzeta=1  polorb=0  (6p)  (non-perturbative polarization shell)
            splnorm:   0.15000
               vcte:    40.000
               rinn:  -0.90000
               qcoe:   0.19310-311
               qyuk:   0.19763-322
               qwid:   0.21220-312
                rcs:    0.0000
            lambdas:    1.0000
L=2  Nsemic=0  Cnfigmx=5
          i=1  nzeta=1  polorb=0  (5d)
            splnorm:   0.15000
               vcte:    40.000
               rinn:  -0.90000
               qcoe:    0.0000
               qyuk:    0.0000
               qwid:   0.10000E-01
                rcs:    0.0000
            lambdas:    1.0000
L=0  Nkbl=2  erefs: 0.17977+309 0.17977+309
L=1  Nkbl=2  erefs: 0.17977+309 0.17977+309
L=2  Nkbl=1  erefs: 0.17977+309
L=3  Nkbl=1  erefs: 0.17977+309
</basis_specs>

Using PAO.SplitTailNorm
atom: Called for Ir                    (Z =  77)
Maximum radius (at nrval) set to   50.00000 8518

read_vps: Pseudopotential generation method:
read_vps: ONCVPSP-3.Hamann's oncvpsp
Valence charge in pseudo generation:   17.00000

read_vps: Pseudopotential includes a core correction:
read_vps: Pseudo-core for xc-correction

xc_check: Exchange-correlation functional:
xc_check: GGA Perdew, Burke & Ernzerhof 1996
Got Vlocal (oncv-fit) from psml data
Choosing vlocal chloc cutoff:  5.047285
qtot up to nchloc:   16.99999563
atom: Maximum radius for chlocal:    5.04729
atom: Maximum radius for r*vlocal+2*Zval:    5.04729
Reading KB projs from Ir psml data
Using scalar-relativistic projectors in PSML file

PSML: Kleinman-Bylander projectors:
   l= 0   rc=  1.623671   Ekb=179.823246
   l= 0   rc=  1.625306   Ekb=  5.611620
   l= 1   rc=  1.623671   Ekb= 14.834396
   l= 1   rc=  1.625306   Ekb=  2.223076
   l= 2   rc=  1.530073   Ekb=  4.077077
   l= 2   rc=  1.530073   Ekb=  0.309986
   l= 3   rc=  2.296727   Ekb=  2.269623
   l= 3   rc=  2.296727   Ekb=  0.752356

PSML: Total number of  Kleinman-Bylander projectors:  32
atom: -------------------------------------------------------------------------

atom: SANKEY-TYPE ORBITALS:

[...]

SPLIT: Basis orbitals for state 6s

[...]

SPLIT: Basis orbitals for state 5p

[...]

SPLIT: Basis orbitals for state 6p
SPLIT: Non-perturbative polarization orbs for state 6s
[...]
<dSpData1D:S at geom step 2
  <sparsity:sparsity for geom step 2
    nrows_g=79 nrows=79 sparsity=.6789 nnzs=4237, refcount: 7>
  <dData1D:(new from dSpData1D) n=4237, refcount: 1>
refcount: 1>
new_DM -- step:     2
Re-using DM from previous geometries...
Number of DMs in history: 1
 DM extrapolation coefficients:
1   1.00000
New DM after history re-use:
<dSpData2D:SpM extrapolated using coords
  <sparsity:sparsity for geom step 2
    nrows_g=79 nrows=79 sparsity=.6789 nnzs=4237, refcount: 9>
  <dData2D:(temp array for extrapolation) n=4237 m=1, refcount: 1>
refcount: 1>
No. of atoms with KB's overlaping orbs in proc 0. Max # of overlaps:       9      59

[...]

        iscf     Eharris(eV)        E_KS(eV)     FreeEng(eV)     dDmax    Ef(eV) dHmax(eV)
   scf:    1    -8521.902726    -8521.919798    -8521.919798  0.008952 -2.916947  0.129557
   scf:    2    -8521.493055    -8521.781655    -8521.781655  0.044798 -2.889838  1.783505
   scf:    3    -8521.929418    -8521.920767    -8521.920767  0.041633 -2.914875  0.037603
   scf:    4    -8521.920856    -8521.920828    -8521.920828  0.000605 -2.913824  0.029825
   scf:    5    -8521.920876    -8521.920853    -8521.920854  0.000266 -2.912673  0.028703
   scf:    6    -8521.920944    -8521.920912    -8521.920912  0.000959 -2.908094  0.016924
   scf:    7    -8521.920904    -8521.920916    -8521.920916  0.000539 -2.904591  0.018805
   scf:    8    -8521.920922    -8521.920920    -8521.920920  0.000136 -2.903035  0.013362
   scf:    9    -8521.920921    -8521.920922    -8521.920922  0.000200 -2.901419  0.005146
   scf:   10    -8521.920923    -8521.920922    -8521.920923  0.000031 -2.901142  0.004456
   scf:   11    -8521.920924    -8521.920924    -8521.920924  0.000129 -2.900116  0.003957
   scf:   12    -8521.920924    -8521.920924    -8521.920924  0.000075 -2.899961  0.002445
   scf:   13    -8521.920924    -8521.920924    -8521.920924  0.000017 -2.899818  0.002186
   scf:   14    -8521.920924    -8521.920924    -8521.920925  0.000051 -2.899443  0.001242
   scf:   15    -8521.920925    -8521.920924    -8521.920925  0.000029 -2.899265  0.000738

[...]

outcell: Cell vector modules (Ang)   :   20.000000   20.000000   20.000000
outcell: Cell angles (23,13,12) (deg):     90.0000     90.0000     90.0000
outcell: Cell volume (Ang**3)        :   8000.0000
<dSpData1D:S at geom step 32
  <sparsity:sparsity for geom step 32
    nrows_g=79 nrows=79 sparsity=.7289 nnzs=4549, refcount: 7>
  <dData1D:(new from dSpData1D) n=4549, refcount: 1>
refcount: 1>
new_DM -- step:    32
Re-using DM from previous geometries...
Number of DMs in history: 1
 DM extrapolation coefficients:
1   1.00000
New DM after history re-use:
<dSpData2D:SpM extrapolated using coords
  <sparsity:sparsity for geom step 32
    nrows_g=79 nrows=79 sparsity=.7289 nnzs=4549, refcount: 9>
  <dData2D:(temp array for extrapolation) n=4549 m=1, refcount: 1>
refcount: 1>
Note: For starting DM, Qtot, Tr[D*S] =         66.00000000         65.92962371
No. of atoms with KB's overlaping orbs in proc 0. Max # of overlaps:       9      60

[...]

outcell: Cell vector modules (Ang)   :   20.000000   20.000000   20.000000
outcell: Cell angles (23,13,12) (deg):     90.0000     90.0000     90.0000
outcell: Cell volume (Ang**3)        :   8000.0000
<dSpData1D:S at geom step 35
  <sparsity:sparsity for geom step 35
    nrows_g=79 nrows=79 sparsity=.7289 nnzs=4549, refcount: 7>
  <dData1D:(new from dSpData1D) n=4549, refcount: 1>
refcount: 1>
new_DM -- step:    35
Re-using DM from previous geometries...
Number of DMs in history: 1
 DM extrapolation coefficients:
1   1.00000
New DM after history re-use:
<dSpData2D:SpM extrapolated using coords
  <sparsity:sparsity for geom step 35
    nrows_g=79 nrows=79 sparsity=.7289 nnzs=4549, refcount: 9>
  <dData2D:(temp array for extrapolation) n=4549 m=1, refcount: 1>
refcount: 1>
Note: For starting DM, Qtot, Tr[D*S] =         66.00000000         65.92999039
No. of atoms with KB's overlaping orbs in proc 0. Max # of overlaps:       9      60

[...]

                        Begin MD step =     50

outcell: Unit cell vectors (Ang):
       20.000000    0.000000    0.000000
        0.000000   20.000000    0.000000
        0.000000    0.000000   20.000000

outcell: Cell vector modules (Ang)   :   20.000000   20.000000   20.000000
outcell: Cell angles (23,13,12) (deg):     90.0000     90.0000     90.0000
outcell: Cell volume (Ang**3)        :   8000.0000
<dSpData1D:S at geom step 50
  <sparsity:sparsity for geom step 50
    nrows_g=79 nrows=79 sparsity=.7548 nnzs=4711, refcount: 7>
  <dData1D:(new from dSpData1D) n=4711, refcount: 1>
refcount: 1>
new_DM -- step:    50
Re-using DM from previous geometries...
Number of DMs in history: 1
 DM extrapolation coefficients:
1   1.00000
New DM after history re-use:
<dSpData2D:SpM extrapolated using coords
  <sparsity:sparsity for geom step 50
    nrows_g=79 nrows=79 sparsity=.7548 nnzs=4711, refcount: 9>
  <dData2D:(temp array for extrapolation) n=4711 m=1, refcount: 1>
refcount: 1>
No. of atoms with KB's overlaping orbs in proc 0. Max # of overlaps:       9      58

InitMesh: MESH = 180 x 180 x 180 = 5832000
InitMesh: Mesh cutoff (required, used) =   200.000   223.865 Ry
New grid distribution [1]: sub = 2

        iscf     Eharris(eV)        E_KS(eV)     FreeEng(eV)     dDmax    Ef(eV) dHmax(eV)
   scf:    1    -8498.111109    -8508.376416    -8508.428492  0.590977 -3.811731  9.297734
   scf:    2    -7718.482810    -8259.490245    -8259.491335  1.535159 -2.660071 71.233872
   scf:    3    -8566.455837    -8504.572046    -8504.634773  1.438642 -3.746375 15.288885
   scf:    4    -8511.798662    -8508.648223    -8508.695945  0.107613 -3.782785 11.937328
   scf:    5    -8509.343394    -8509.002637    -8509.051932  0.025472 -3.786799 11.412766
   scf:    6    -8511.951898    -8510.560342    -8510.609045  0.079555 -3.801855  9.236740
   scf:    7    -8511.645072    -8511.789877    -8511.838531  0.204502 -3.813701  4.525256
   scf:    8    -8470.972340    -8501.343406    -8501.355603  1.104758 -3.783752 17.678428
   scf:    9    -8499.861617    -8500.645835    -8500.658983  0.042040 -3.779972 18.408064
   scf:   10    -8500.601755    -8500.750969    -8500.760650  0.070617 -3.782812 17.887895
   scf:   11    -8512.136299    -8508.952849    -8509.011302  0.482095 -3.780375 10.111224
   scf:   12    -8503.881761    -8509.156902    -8509.190935  0.556649 -3.764333  9.270929
   scf:   13    -8510.364955    -8513.136616    -8513.209947  0.314139 -3.829390  2.681244
   scf:   14    -8512.339609    -8512.980084    -8513.042931  0.181362 -3.811402  4.075930
   scf:   15    -8512.541511    -8513.404209    -8513.472957  0.200067 -3.793586  1.826647
   scf:   16    -8507.628861    -8511.935437    -8512.006618  0.263663 -3.790753  4.779835
   scf:   17    -8509.370309    -8510.735929    -8510.805236  0.057032 -3.780098  6.079909
   scf:   18    -8512.710871    -8513.460795    -8513.530797  0.307505 -3.775370  1.150953
   scf:   19    -8513.012644    -8513.461033    -8513.530976  0.120462 -3.778396  1.605744
   scf:   20    -8513.625127    -8513.565514    -8513.635261  0.036145 -3.746331  0.623944
   scf:   21    -8513.584675    -8513.586364    -8513.656094  0.026286 -3.746228  0.109132
   scf:   22    -8513.557328    -8513.578005    -8513.646193  0.011204 -3.736919  0.419732
   scf:   23    -8513.586449    -8513.587043    -8513.656636  0.011196 -3.743801  0.059305
   scf:   24    -8513.587345    -8513.587239    -8513.656884  0.001874 -3.742458  0.041938
   scf:   25    -8513.587901    -8513.587634    -8513.657168  0.003078 -3.741179  0.012912
   scf:   26    -8513.587663    -8513.587649    -8513.657198  0.000637 -3.741088  0.012040
   scf:   27    -8513.587733    -8513.587704    -8513.657304  0.003054 -3.740216  0.007952
   scf:   28    -8513.587626    -8513.587672    -8513.657346  0.002597 -3.739260  0.008703
   scf:   29    -8513.587660    -8513.587666    -8513.657349  0.000200 -3.739313  0.008025
   scf:   30    -8513.587610    -8513.587639    -8513.657359  0.000463 -3.739829  0.005853
   scf:   31    -8513.587528    -8513.587586    -8513.657367  0.000673 -3.740492  0.003577
   scf:   32    -8513.587589    -8513.587588    -8513.657368  0.000089 -3.740479  0.003185
   scf:   33    -8513.587596    -8513.587592    -8513.657369  0.000151 -3.740547  0.002991
   scf:   34    -8513.587614    -8513.587603    -8513.657370  0.000245 -3.740579  0.002289
   scf:   35    -8513.587627    -8513.587615    -8513.657371  0.000329 -3.740668  0.001639
   scf:   36    -8513.587623    -8513.587619    -8513.657371  0.000104 -3.740635  0.001853
   scf:   37    -8513.587625    -8513.587622    -8513.657371  0.000138 -3.740603  0.002029
   scf:   38    -8513.587616    -8513.587619    -8513.657372  0.000096 -3.740637  0.001621
   scf:   39    -8513.587597    -8513.587608    -8513.657372  0.000171 -3.740618  0.001032
   scf:   40    -8513.587597    -8513.587602    -8513.657372  0.000153 -3.740536  0.000344

SCF Convergence by DM+H criterion
max |DM_out - DM_in|         :     0.0001529252
max |H_out - H_in|      (eV) :     0.0003444657
SCF cycle converged after 40 iterations

Using DM_out to compute the final energy and forces
No. of atoms with KB's overlaping orbs in proc 0. Max # of overlaps:       9      58

siesta: E_KS(eV) =            -8513.5876

siesta: Atomic forces (eV/Ang):
   Tot   -0.047930   -0.002995   -0.013585
   Max    4.669035
   Res    1.960247    sqrt( Sum f_i^2 / 3N )
   Max    4.669035    constrained

Stress tensor Voigt[x,y,z,yz,xz,xy] (kbar):       -0.72        0.32       -0.09       -0.22        0.04        1.17
(Free)E + p*V (eV/cell)    -8512.8463
Target enthalpy (eV/cell)    -8513.6574

siesta: Stress tensor (static) (eV/Ang**3):
         0.000357    0.000198   -0.000109
         0.000198    0.001256   -0.000163
        -0.000109   -0.000163    0.001331

siesta: Pressure (static):         -1.57236065  kBar

siesta: Stress tensor (total) (eV/Ang**3):
        -0.000450    0.000731    0.000027
         0.000731    0.000201   -0.000139
         0.000027   -0.000139   -0.000055

siesta: Pressure (total):          0.16244006  kBar

siesta: Temp_ion =    9725.453 K

coxmol: Writing XMOL coordinates into file output_sim3/simulacio3.xyz

siesta: Program's energy decomposition (eV):
siesta: Ebs     =     -1490.326214
siesta: Eions   =     11676.786863
siesta: Ena     =      1580.255092
siesta: Ekin    =      3320.909300
siesta: Enl     =       -25.918350
siesta: Eso     =         0.000000
siesta: Edftu   =         0.000000
siesta: DEna    =        49.220548
siesta: DUscf   =         6.363304
siesta: DUext   =         0.000000
siesta: Ex      =     -1661.079199
siesta: Ec      =      -106.551435
siesta: Exc     =     -1767.630634
siesta: EbV     =         0.000000
siesta: eta*DQ  =         0.000000
siesta: Emadel  =         0.000000
siesta: Emeta   =         0.000000
siesta: Emolmec =         0.000000
siesta: Ekinion =        10.056897
siesta: Eharris =     -8503.530700
siesta: Etot    =     -8503.530706
siesta: FreeEng =     -8503.600476

siesta: Final energy (eV):
siesta:  Band Struct. =   -1490.326214
siesta:       Kinetic =    3320.909300
siesta:       Hartree =   10999.162316
siesta:         Edftu =       0.000000
siesta:       Eso     =       0.000000
siesta:    Ext. field =       0.000000
siesta:         Exch. =   -1661.079199
siesta:         Corr. =    -106.551435
siesta:     Bulk bias =       0.000000
siesta:   Exch.-corr. =   -1767.630634
siesta:  Ion-electron =  -25315.717428
siesta:       Ion-ion =    4249.688843
siesta:       Ekinion =      10.056897
siesta: D3 dispersion =       0.000000
siesta:         Total =   -8503.530706
siesta:         Fermi =      -3.740536

siesta: Atomic forces (eV/Ang):
siesta:      1    0.837133    4.669035    0.064806
siesta:      2   -3.813641   -1.354145    0.595326
siesta:      3   -0.520674    1.010059    1.382104
siesta:      4    0.921518    0.619866   -1.476505
siesta:      5    1.549631   -0.488346    0.944090
siesta:      6    1.217275   -4.355148   -0.374748
siesta:      7    3.717633   -0.831002   -1.464067
siesta:      8   -1.220475    1.059621    2.009926
siesta:      9   -2.736331   -0.332936   -1.694518
siesta: ----------------------------------------
siesta:    Tot   -0.047930   -0.002995   -0.013585

siesta: Stress tensor (static) (eV/Ang**3):
siesta:     0.000357    0.000198   -0.000109
siesta:     0.000198    0.001256   -0.000163
siesta:    -0.000109   -0.000163    0.001331

siesta: Cell volume =       8000.000000 Ang**3

siesta: Pressure (static):
siesta:                Solid            Molecule  Units
siesta:          -0.00001069          0.00000002  Ry/Bohr**3
siesta:          -0.00098139          0.00000204  eV/Ang**3
siesta:          -1.57236065          0.00326478  kBar
(Free)E+ p_basis*V_orbitals  =       -8511.523869
(Free)Eharris+ p_basis*V_orbitals  =       -8511.523864

siesta: Electric dipole (a.u.)  =   -1.138514   -3.449639   -3.269908
siesta: Electric dipole (Debye) =   -2.893813   -8.768109   -8.311277

cite: Please see "output_sim3/simulacio3.bib" for an exhaustive BiBTeX file.
cite: Please clearly indicate Siesta version in published work: 5.2.1
cite: This calculation has made use of the following articles
cite: which are encouraged to be cited in a published work.
        Primary SIESTA paper
          DOI: www.doi.org/10.1088/0953-8984/14/11/302

Routine            Calls   Time/call    Tot.time        %
siesta                 1    2428.585    2428.585   100.00
Setup                  1       1.223       1.223     0.05
bands                  1       0.000       0.000     0.00
KSV_init               1       0.000       0.000     0.00
IterGeom              50      48.547    2427.360    99.95
geom_init             50       1.164      58.192     2.40
state_init            50       0.012       0.620     0.03
hsparse               50       0.000       0.008     0.00
overlap               50       0.012       0.598     0.02
Setup_H0              50       0.561      28.074     1.16
naefs                100       0.000       0.005     0.00
dnaefs               100       0.000       0.003     0.00
MolMec               100       0.000       0.000     0.00
kinefsm              100       0.005       0.502     0.02
nlefsm               100       0.038       3.795     0.16
DHSCF_Init            50       0.481      24.025     0.99
DHSCF1                50       0.020       1.006     0.04
InitMesh              50       0.020       1.004     0.04
INITMESH              50       0.000       0.000     0.00
DHSCF2                50       0.460      23.020     0.95
REMESH                50       0.013       0.658     0.03
REORD               3836       0.047     181.731     7.48
PHION                 50       0.126       6.303     0.26
COMM_BSC            6322       0.029     185.270     7.63
POISON              1593       0.247     393.835    16.22
fft                 3186       0.091     290.273    11.95
setup_H             1493       1.560    2328.890    95.89
DHSCF               1543       1.534    2366.915    97.46
DHSCF3              1543       1.525    2352.871    96.88
rhoofd              1543       0.481     741.776    30.54
XC                  1543       0.176     271.853    11.19
GXC-CellXC          1543       0.148     227.899     9.38
gridxc@cellXC       1543       0.148     227.891     9.38
vmat                1543       0.017      26.874     1.11
IterSCF             1443       1.611    2325.292    95.75
compute_dm          1443       0.018      25.451     1.05
diagon              1443       0.018      25.295     1.04
r-eigvec            1443       0.011      16.094     0.66
r-buildHS           1443       0.000       0.013     0.00
rdiag               1443       0.011      16.065     0.66
rdiag1              1443       0.001       1.965     0.08
rdiag2              1443       0.002       2.267     0.09
rdiag3              1443       0.008      11.454     0.47
rdiag4              1443       0.000       0.303     0.01
r-buildD            1443       0.006       8.756     0.36
MIXER               1393       0.000       0.140     0.01
PostSCF               50       0.877      43.831     1.80
FINAL_HF              50       0.877      43.831     1.80
DHSCF4                50       0.281      14.032     0.58
dfscf                 50       0.159       7.947     0.33
overfsm               50       0.001       0.051     0.00
writeHSX              50       0.000       0.007     0.00
state_analysis        50       0.000       0.007     0.00
siesta_move           50       0.000       0.013     0.00
Analysis               1       0.000       0.000     0.00
optical                1       0.000       0.000     0.00

>> End of run:   2-JUL-2025   0:13:34
Job completed
Job completed